! Created with skrf 2.1.0 (http://scikit-rf.org).
# GHz S RI R 50.0 
!freq ReS11 ImS11
!
2.0 1.0 0.0
2.005 1.0 0.0
2.01 1.0 0.0
2.015 1.0 0.0
2.02 1.0 0.0
2.025 1.0 0.0
2.03 1.0 0.0
2.035 1.0 0.0
2.04 1.0 0.0
2.045 1.0 0.0
2.05 1.0 0.0
2.055 1.0 0.0
2.06 1.0 0.0
2.065 1.0 0.0
2.07 1.0 0.0
2.075 1.0 0.0
2.08 1.0 0.0
2.085 1.0 0.0
2.09 1.0 0.0
2.095 1.0 0.0
2.1 1.0 0.0
2.105 1.0 0.0
2.11 1.0 0.0
2.115 1.0 0.0
2.12 1.0 0.0
2.125 1.0 0.0
2.13 1.0 0.0
2.135 1.0 0.0
2.14 1.0 0.0
2.145 1.0 0.0
2.15 1.0 0.0
2.155 1.0 0.0
2.16 1.0 0.0
2.165 1.0 0.0
2.17 1.0 0.0
2.175 1.0 0.0
2.18 1.0 0.0
2.185 1.0 0.0
2.19 1.0 0.0
2.195 1.0 0.0
2.2 1.0 0.0
2.205 1.0 0.0
2.21 1.0 0.0
2.215 1.0 0.0
2.22 1.0 0.0
2.225 1.0 0.0
2.23 1.0 0.0
2.235 1.0 0.0
2.24 1.0 0.0
2.245 1.0 0.0
2.25 1.0 0.0
2.255 1.0 0.0
2.26 1.0 0.0
2.265 1.0 0.0
2.27 1.0 0.0
2.275 1.0 0.0
2.28 1.0 0.0
2.285 1.0 0.0
2.29 1.0 0.0
2.295 1.0 0.0
2.3 1.0 0.0
2.305 1.0 0.0
2.31 1.0 0.0
2.315 1.0 0.0
2.32 1.0 0.0
2.325 1.0 0.0
2.33 1.0 0.0
2.335 1.0 0.0
2.34 1.0 0.0
2.345 1.0 0.0
2.35 1.0 0.0
2.355 1.0 0.0
2.36 1.0 0.0
2.365 1.0 0.0
2.37 1.0 0.0
2.375 1.0 0.0
2.38 1.0 0.0
2.385 1.0 0.0
2.39 1.0 0.0
2.395 1.0 0.0
2.4 1.0 0.0
2.405 1.0 0.0
2.41 1.0 0.0
2.415 1.0 0.0
2.42 1.0 0.0
2.425 1.0 0.0
2.43 1.0 0.0
2.435 1.0 0.0
2.44 1.0 0.0
2.445 1.0 0.0
2.45 1.0 0.0
2.455 1.0 0.0
2.46 1.0 0.0
2.465 1.0 0.0
2.47 1.0 0.0
2.475 1.0 0.0
2.48 1.0 0.0
2.485 1.0 0.0
2.49 1.0 0.0
2.495 1.0 0.0
2.5 1.0 0.0
2.505 1.0 0.0
2.51 1.0 0.0
2.515 1.0 0.0
2.52 1.0 0.0
2.525 1.0 0.0
2.53 1.0 0.0
2.535 1.0 0.0
2.54 1.0 0.0
2.545 1.0 0.0
2.55 1.0 0.0
2.555 1.0 0.0
2.56 1.0 0.0
2.565 1.0 0.0
2.57 1.0 0.0
2.575 1.0 0.0
2.58 1.0 0.0
2.585 1.0 0.0
2.59 1.0 0.0
2.595 1.0 0.0
2.6 1.0 0.0
2.605 1.0 0.0
2.61 1.0 0.0
2.615 1.0 0.0
2.62 1.0 0.0
2.625 1.0 0.0
2.63 1.0 0.0
2.635 1.0 0.0
2.64 1.0 0.0
2.645 1.0 0.0
2.65 1.0 0.0
2.655 1.0 0.0
2.66 1.0 0.0
2.665 1.0 0.0
2.67 1.0 0.0
2.675 1.0 0.0
2.68 1.0 0.0
2.685 1.0 0.0
2.69 1.0 0.0
2.695 1.0 0.0
2.7 1.0 0.0
2.705 1.0 0.0
2.71 1.0 0.0
2.715 1.0 0.0
2.72 1.0 0.0
2.725 1.0 0.0
2.73 1.0 0.0
2.735 1.0 0.0
2.74 1.0 0.0
2.745 1.0 0.0
2.75 1.0 0.0
2.755 1.0 0.0
2.76 1.0 0.0
2.765 1.0 0.0
2.77 1.0 0.0
2.775 1.0 0.0
2.78 1.0 0.0
2.785 1.0 0.0
2.79 1.0 0.0
2.795 1.0 0.0
2.8 1.0 0.0
2.805 1.0 0.0
2.81 1.0 0.0
2.815 1.0 0.0
2.82 1.0 0.0
2.825 1.0 0.0
2.83 1.0 0.0
2.835 1.0 0.0
2.84 1.0 0.0
2.845 1.0 0.0
2.85 1.0 0.0
2.855 1.0 0.0
2.86 1.0 0.0
2.865 1.0 0.0
2.87 1.0 0.0
2.875 1.0 0.0
2.88 1.0 0.0
2.885 1.0 0.0
2.89 1.0 0.0
2.895 1.0 0.0
2.9 1.0 0.0
2.905 1.0 0.0
2.91 1.0 0.0
2.915 1.0 0.0
2.92 1.0 0.0
2.925 1.0 0.0
2.93 1.0 0.0
2.935 1.0 0.0
2.94 1.0 0.0
2.945 1.0 0.0
2.95 1.0 0.0
2.955 1.0 0.0
2.96 1.0 0.0
2.965 1.0 0.0
2.97 1.0 0.0
2.975 1.0 0.0
2.98 1.0 0.0
2.985 1.0 0.0
2.99 1.0 0.0
2.995 1.0 0.0
3.0 1.0 0.0
