! synthetic ferrite_bead synth_bead600_100mhz_demo nominal=1e-06 esr=600 srf=0.1GHz (rfauto core.vendor_passives generator)
# GHZ S RI R 50
5.000000000000e-03 1.019578926711e-01 2.774834545598e-01 8.980421073289e-01 -2.774834545598e-01 8.980421073289e-01 -2.774834545598e-01 1.019578926711e-01 2.774834545598e-01
5.073750000000e-03 1.046316984683e-01 2.806002862587e-01 8.953683015317e-01 -2.806002862587e-01 8.953683015317e-01 -2.806002862587e-01 1.046316984683e-01 2.806002862587e-01
5.147500000000e-03 1.073261764583e-01 2.836810839350e-01 8.926738235417e-01 -2.836810839350e-01 8.926738235417e-01 -2.836810839350e-01 1.073261764583e-01 2.836810839350e-01
5.221250000000e-03 1.100407158107e-01 2.867257477380e-01 8.899592841893e-01 -2.867257477380e-01 8.899592841893e-01 -2.867257477380e-01 1.100407158107e-01 2.867257477380e-01
5.295000000000e-03 1.127747081543e-01 2.897341898388e-01 8.872252918457e-01 -2.897341898388e-01 8.872252918457e-01 -2.897341898388e-01 1.127747081543e-01 2.897341898388e-01
5.368750000000e-03 1.155275478328e-01 2.927063342667e-01 8.844724521672e-01 -2.927063342667e-01 8.844724521672e-01 -2.927063342667e-01 1.155275478328e-01 2.927063342667e-01
5.442500000000e-03 1.182986321531e-01 2.956421167400e-01 8.817013678469e-01 -2.956421167400e-01 8.817013678469e-01 -2.956421167400e-01 1.182986321531e-01 2.956421167400e-01
5.516250000000e-03 1.210873616260e-01 2.985414844916e-01 8.789126383740e-01 -2.985414844916e-01 8.789126383740e-01 -2.985414844916e-01 1.210873616260e-01 2.985414844916e-01
5.590000000000e-03 1.238931401999e-01 3.014043960907e-01 8.761068598001e-01 -3.014043960907e-01 8.761068598001e-01 -3.014043960907e-01 1.238931401999e-01 3.014043960907e-01
5.663750000000e-03 1.267153754865e-01 3.042308212587e-01 8.732846245135e-01 -3.042308212587e-01 8.732846245135e-01 -3.042308212587e-01 1.267153754865e-01 3.042308212587e-01
5.737500000000e-03 1.295534789796e-01 3.070207406832e-01 8.704465210204e-01 -3.070207406832e-01 8.704465210204e-01 -3.070207406832e-01 1.295534789796e-01 3.070207406832e-01
5.811250000000e-03 1.324068662655e-01 3.097741458255e-01 8.675931337345e-01 -3.097741458255e-01 8.675931337345e-01 -3.097741458255e-01 1.324068662655e-01 3.097741458255e-01
5.885000000000e-03 1.352749572272e-01 3.124910387272e-01 8.647250427728e-01 -3.124910387272e-01 8.647250427728e-01 -3.124910387272e-01 1.352749572272e-01 3.124910387272e-01
5.958750000000e-03 1.381571762394e-01 3.151714318116e-01 8.618428237606e-01 -3.151714318116e-01 8.618428237606e-01 -3.151714318116e-01 1.381571762394e-01 3.151714318116e-01
6.032500000000e-03 1.410529523570e-01 3.178153476834e-01 8.589470476430e-01 -3.178153476834e-01 8.589470476430e-01 -3.178153476834e-01 1.410529523570e-01 3.178153476834e-01
6.106250000000e-03 1.439617194959e-01 3.204228189248e-01 8.560382805041e-01 -3.204228189248e-01 8.560382805041e-01 -3.204228189248e-01 1.439617194959e-01 3.204228189248e-01
6.180000000000e-03 1.468829166059e-01 3.229938878902e-01 8.531170833941e-01 -3.229938878902e-01 8.531170833941e-01 -3.229938878902e-01 1.468829166059e-01 3.229938878902e-01
6.253750000000e-03 1.498159878364e-01 3.255286064977e-01 8.501840121636e-01 -3.255286064977e-01 8.501840121636e-01 -3.255286064977e-01 1.498159878364e-01 3.255286064977e-01
6.327500000000e-03 1.527603826944e-01 3.280270360199e-01 8.472396173056e-01 -3.280270360199e-01 8.472396173056e-01 -3.280270360199e-01 1.527603826944e-01 3.280270360199e-01
6.401250000000e-03 1.557155561956e-01 3.304892468716e-01 8.442844438044e-01 -3.304892468716e-01 8.442844438044e-01 -3.304892468716e-01 1.557155561956e-01 3.304892468716e-01
6.475000000000e-03 1.586809690071e-01 3.329153183978e-01 8.413190309929e-01 -3.329153183978e-01 8.413190309929e-01 -3.329153183978e-01 1.586809690071e-01 3.329153183978e-01
6.548750000000e-03 1.616560875842e-01 3.353053386593e-01 8.383439124158e-01 -3.353053386593e-01 8.383439124158e-01 -3.353053386593e-01 1.616560875842e-01 3.353053386593e-01
6.622500000000e-03 1.646403842986e-01 3.376594042179e-01 8.353596157014e-01 -3.376594042179e-01 8.353596157014e-01 -3.376594042179e-01 1.646403842986e-01 3.376594042179e-01
6.696250000000e-03 1.676333375603e-01 3.399776199211e-01 8.323666624397e-01 -3.399776199211e-01 8.323666624397e-01 -3.399776199211e-01 1.676333375603e-01 3.399776199211e-01
6.770000000000e-03 1.706344319323e-01 3.422600986860e-01 8.293655680677e-01 -3.422600986860e-01 8.293655680677e-01 -3.422600986860e-01 1.706344319323e-01 3.422600986860e-01
6.843750000000e-03 1.736431582382e-01 3.445069612833e-01 8.263568417618e-01 -3.445069612833e-01 8.263568417618e-01 -3.445069612833e-01 1.736431582382e-01 3.445069612833e-01
6.917500000000e-03 1.766590136625e-01 3.467183361210e-01 8.233409863375e-01 -3.467183361210e-01 8.233409863375e-01 -3.467183361210e-01 1.766590136625e-01 3.467183361210e-01
6.991250000000e-03 1.796815018454e-01 3.488943590287e-01 8.203184981546e-01 -3.488943590287e-01 8.203184981546e-01 -3.488943590287e-01 1.796815018454e-01 3.488943590287e-01
7.065000000000e-03 1.827101329693e-01 3.510351730420e-01 8.172898670307e-01 -3.510351730420e-01 8.172898670307e-01 -3.510351730420e-01 1.827101329693e-01 3.510351730420e-01
7.138750000000e-03 1.857444238400e-01 3.531409281872e-01 8.142555761600e-01 -3.531409281872e-01 8.142555761600e-01 -3.531409281872e-01 1.857444238400e-01 3.531409281872e-01
7.212500000000e-03 1.887838979609e-01 3.552117812679e-01 8.112161020391e-01 -3.552117812679e-01 8.112161020391e-01 -3.552117812679e-01 1.887838979609e-01 3.552117812679e-01
7.286250000000e-03 1.918280856009e-01 3.572478956508e-01 8.081719143991e-01 -3.572478956508e-01 8.081719143991e-01 -3.572478956508e-01 1.918280856009e-01 3.572478956508e-01
7.360000000000e-03 1.948765238562e-01 3.592494410544e-01 8.051234761438e-01 -3.592494410544e-01 8.051234761438e-01 -3.592494410544e-01 1.948765238562e-01 3.592494410544e-01
7.433750000000e-03 1.979287567062e-01 3.612165933379e-01 8.020712432938e-01 -3.612165933379e-01 8.020712432938e-01 -3.612165933379e-01 1.979287567062e-01 3.612165933379e-01
7.507500000000e-03 2.009843350629e-01 3.631495342915e-01 7.990156649371e-01 -3.631495342915e-01 7.990156649371e-01 -3.631495342915e-01 2.009843350629e-01 3.631495342915e-01
7.581250000000e-03 2.040428168155e-01 3.650484514290e-01 7.959571831845e-01 -3.650484514290e-01 7.959571831845e-01 -3.650484514290e-01 2.040428168155e-01 3.650484514290e-01
7.655000000000e-03 2.071037668679e-01 3.669135377815e-01 7.928962331321e-01 -3.669135377815e-01 7.928962331321e-01 -3.669135377815e-01 2.071037668679e-01 3.669135377815e-01
7.728750000000e-03 2.101667571722e-01 3.687449916931e-01 7.898332428278e-01 -3.687449916931e-01 7.898332428278e-01 -3.687449916931e-01 2.101667571722e-01 3.687449916931e-01
7.802500000000e-03 2.132313667559e-01 3.705430166189e-01 7.867686332441e-01 -3.705430166189e-01 7.867686332441e-01 -3.705430166189e-01 2.132313667559e-01 3.705430166189e-01
7.876250000000e-03 2.162971817437e-01 3.723078209244e-01 7.837028182563e-01 -3.723078209244e-01 7.837028182563e-01 -3.723078209244e-01 2.162971817437e-01 3.723078209244e-01
7.950000000000e-03 2.193637953750e-01 3.740396176879e-01 7.806362046250e-01 -3.740396176879e-01 7.806362046250e-01 -3.740396176879e-01 2.193637953750e-01 3.740396176879e-01
8.023750000000e-03 2.224308080159e-01 3.757386245048e-01 7.775691919841e-01 -3.757386245048e-01 7.775691919841e-01 -3.757386245048e-01 2.224308080159e-01 3.757386245048e-01
8.097500000000e-03 2.254978271661e-01 3.774050632941e-01 7.745021728339e-01 -3.774050632941e-01 7.745021728339e-01 -3.774050632941e-01 2.254978271661e-01 3.774050632941e-01
8.171250000000e-03 2.285644674619e-01 3.790391601082e-01 7.714355325381e-01 -3.790391601082e-01 7.714355325381e-01 -3.790391601082e-01 2.285644674619e-01 3.790391601082e-01
8.245000000000e-03 2.316303506744e-01 3.806411449443e-01 7.683696493256e-01 -3.806411449443e-01 7.683696493256e-01 -3.806411449443e-01 2.316303506744e-01 3.806411449443e-01
8.318750000000e-03 2.346951057025e-01 3.822112515594e-01 7.653048942975e-01 -3.822112515594e-01 7.653048942975e-01 -3.822112515594e-01 2.346951057025e-01 3.822112515594e-01
8.392500000000e-03 2.377583685630e-01 3.837497172872e-01 7.622416314370e-01 -3.837497172872e-01 7.622416314370e-01 -3.837497172872e-01 2.377583685630e-01 3.837497172872e-01
8.466250000000e-03 2.408197823760e-01 3.852567828587e-01 7.591802176240e-01 -3.852567828587e-01 7.591802176240e-01 -3.852567828587e-01 2.408197823760e-01 3.852567828587e-01
8.540000000000e-03 2.438789973455e-01 3.867326922250e-01 7.561210026545e-01 -3.867326922250e-01 7.561210026545e-01 -3.867326922250e-01 2.438789973455e-01 3.867326922250e-01
8.613750000000e-03 2.469356707382e-01 3.881776923834e-01 7.530643292618e-01 -3.881776923834e-01 7.530643292618e-01 -3.881776923834e-01 2.469356707382e-01 3.881776923834e-01
8.687500000000e-03 2.499894668564e-01 3.895920332062e-01 7.500105331436e-01 -3.895920332062e-01 7.500105331436e-01 -3.895920332062e-01 2.499894668564e-01 3.895920332062e-01
8.761250000000e-03 2.530400570090e-01 3.909759672731e-01 7.469599429910e-01 -3.909759672731e-01 7.469599429910e-01 -3.909759672731e-01 2.530400570090e-01 3.909759672731e-01
8.835000000000e-03 2.560871194785e-01 3.923297497061e-01 7.439128805215e-01 -3.923297497061e-01 7.439128805215e-01 -3.923297497061e-01 2.560871194785e-01 3.923297497061e-01
8.908750000000e-03 2.591303394845e-01 3.936536380078e-01 7.408696605155e-01 -3.936536380078e-01 7.408696605155e-01 -3.936536380078e-01 2.591303394845e-01 3.936536380078e-01
8.982500000000e-03 2.621694091447e-01 3.949478919028e-01 7.378305908553e-01 -3.949478919028e-01 7.378305908553e-01 -3.949478919028e-01 2.621694091447e-01 3.949478919028e-01
9.056250000000e-03 2.652040274327e-01 3.962127731825e-01 7.347959725673e-01 -3.962127731825e-01 7.347959725673e-01 -3.962127731825e-01 2.652040274327e-01 3.962127731825e-01
9.130000000000e-03 2.682339001325e-01 3.974485455526e-01 7.317660998675e-01 -3.974485455526e-01 7.317660998675e-01 -3.974485455526e-01 2.682339001325e-01 3.974485455526e-01
9.203750000000e-03 2.712587397908e-01 3.986554744844e-01 7.287412602092e-01 -3.986554744844e-01 7.287412602092e-01 -3.986554744844e-01 2.712587397908e-01 3.986554744844e-01
9.277500000000e-03 2.742782656670e-01 3.998338270691e-01 7.257217343330e-01 -3.998338270691e-01 7.257217343330e-01 -3.998338270691e-01 2.742782656670e-01 3.998338270691e-01
9.351250000000e-03 2.772922036799e-01 4.009838718751e-01 7.227077963201e-01 -4.009838718751e-01 7.227077963201e-01 -4.009838718751e-01 2.772922036799e-01 4.009838718751e-01
9.425000000000e-03 2.803002863526e-01 4.021058788091e-01 7.196997136474e-01 -4.021058788091e-01 7.196997136474e-01 -4.021058788091e-01 2.803002863526e-01 4.021058788091e-01
9.498750000000e-03 2.833022527553e-01 4.032001189800e-01 7.166977472447e-01 -4.032001189800e-01 7.166977472447e-01 -4.032001189800e-01 2.833022527553e-01 4.032001189800e-01
9.572500000000e-03 2.862978484457e-01 4.042668645659e-01 7.137021515543e-01 -4.042668645659e-01 7.137021515543e-01 -4.042668645659e-01 2.862978484457e-01 4.042668645659e-01
9.646250000000e-03 2.892868254077e-01 4.053063886855e-01 7.107131745923e-01 -4.053063886855e-01 7.107131745923e-01 -4.053063886855e-01 2.892868254077e-01 4.053063886855e-01
9.720000000000e-03 2.922689419879e-01 4.063189652710e-01 7.077310580121e-01 -4.063189652710e-01 7.077310580121e-01 -4.063189652710e-01 2.922689419879e-01 4.063189652710e-01
9.793750000000e-03 2.952439628309e-01 4.073048689458e-01 7.047560371691e-01 -4.073048689458e-01 7.047560371691e-01 -4.073048689458e-01 2.952439628309e-01 4.073048689458e-01
9.867500000000e-03 2.982116588124e-01 4.082643749045e-01 7.017883411876e-01 -4.082643749045e-01 7.017883411876e-01 -4.082643749045e-01 2.982116588124e-01 4.082643749045e-01
9.941250000000e-03 3.011718069712e-01 4.091977587963e-01 6.988281930288e-01 -4.091977587963e-01 6.988281930288e-01 -4.091977587963e-01 3.011718069712e-01 4.091977587963e-01
1.001500000000e-02 3.041241904397e-01 4.101052966119e-01 6.958758095603e-01 -4.101052966119e-01 6.958758095603e-01 -4.101052966119e-01 3.041241904397e-01 4.101052966119e-01
1.008875000000e-02 3.070685983727e-01 4.109872645733e-01 6.929314016273e-01 -4.109872645733e-01 6.929314016273e-01 -4.109872645733e-01 3.070685983727e-01 4.109872645733e-01
1.016250000000e-02 3.100048258756e-01 4.118439390266e-01 6.899951741244e-01 -4.118439390266e-01 6.899951741244e-01 -4.118439390266e-01 3.100048258756e-01 4.118439390266e-01
1.023625000000e-02 3.129326739314e-01 4.126755963382e-01 6.870673260686e-01 -4.126755963382e-01 6.870673260686e-01 -4.126755963382e-01 3.129326739314e-01 4.126755963382e-01
1.031000000000e-02 3.158519493258e-01 4.134825127939e-01 6.841480506742e-01 -4.134825127939e-01 6.841480506742e-01 -4.134825127939e-01 3.158519493258e-01 4.134825127939e-01
1.038375000000e-02 3.187624645728e-01 4.142649645013e-01 6.812375354272e-01 -4.142649645013e-01 6.812375354272e-01 -4.142649645013e-01 3.187624645728e-01 4.142649645013e-01
1.045750000000e-02 3.216640378382e-01 4.150232272950e-01 6.783359621618e-01 -4.150232272950e-01 6.783359621618e-01 -4.150232272950e-01 3.216640378382e-01 4.150232272950e-01
1.053125000000e-02 3.245564928631e-01 4.157575766446e-01 6.754435071369e-01 -4.157575766446e-01 6.754435071369e-01 -4.157575766446e-01 3.245564928631e-01 4.157575766446e-01
1.060500000000e-02 3.274396588865e-01 4.164682875660e-01 6.725603411135e-01 -4.164682875660e-01 6.725603411135e-01 -4.164682875660e-01 3.274396588865e-01 4.164682875660e-01
1.067875000000e-02 3.303133705673e-01 4.171556345358e-01 6.696866294327e-01 -4.171556345358e-01 6.696866294327e-01 -4.171556345358e-01 3.303133705673e-01 4.171556345358e-01
1.075250000000e-02 3.331774679054e-01 4.178198914080e-01 6.668225320946e-01 -4.178198914080e-01 6.668225320946e-01 -4.178198914080e-01 3.331774679054e-01 4.178198914080e-01
1.082625000000e-02 3.360317961637e-01 4.184613313337e-01 6.639682038363e-01 -4.184613313337e-01 6.639682038363e-01 -4.184613313337e-01 3.360317961637e-01 4.184613313337e-01
1.090000000000e-02 3.388762057876e-01 4.190802266840e-01 6.611237942124e-01 -4.190802266840e-01 6.611237942124e-01 -4.190802266840e-01 3.388762057876e-01 4.190802266840e-01
1.097375000000e-02 3.417105523264e-01 4.196768489751e-01 6.582894476736e-01 -4.196768489751e-01 6.582894476736e-01 -4.196768489751e-01 3.417105523264e-01 4.196768489751e-01
1.104750000000e-02 3.445346963530e-01 4.202514687967e-01 6.554653036470e-01 -4.202514687967e-01 6.554653036470e-01 -4.202514687967e-01 3.445346963530e-01 4.202514687967e-01
1.112125000000e-02 3.473485033841e-01 4.208043557424e-01 6.526514966159e-01 -4.208043557424e-01 6.526514966159e-01 -4.208043557424e-01 3.473485033841e-01 4.208043557424e-01
1.119500000000e-02 3.501518438000e-01 4.213357783431e-01 6.498481562000e-01 -4.213357783431e-01 6.498481562000e-01 -4.213357783431e-01 3.501518438000e-01 4.213357783431e-01
1.126875000000e-02 3.529445927646e-01 4.218460040034e-01 6.470554072354e-01 -4.218460040034e-01 6.470554072354e-01 -4.218460040034e-01 3.529445927646e-01 4.218460040034e-01
1.134250000000e-02 3.557266301454e-01 4.223352989392e-01 6.442733698546e-01 -4.223352989392e-01 6.442733698546e-01 -4.223352989392e-01 3.557266301454e-01 4.223352989392e-01
1.141625000000e-02 3.584978404333e-01 4.228039281194e-01 6.415021595667e-01 -4.228039281194e-01 6.415021595667e-01 -4.228039281194e-01 3.584978404333e-01 4.228039281194e-01
1.149000000000e-02 3.612581126629e-01 4.232521552091e-01 6.387418873371e-01 -4.232521552091e-01 6.387418873371e-01 -4.232521552091e-01 3.612581126629e-01 4.232521552091e-01
1.156375000000e-02 3.640073403329e-01 4.236802425151e-01 6.359926596671e-01 -4.236802425151e-01 6.359926596671e-01 -4.236802425151e-01 3.640073403329e-01 4.236802425151e-01
1.163750000000e-02 3.667454213264e-01 4.240884509343e-01 6.332545786736e-01 -4.240884509343e-01 6.332545786736e-01 -4.240884509343e-01 3.667454213264e-01 4.240884509343e-01
1.171125000000e-02 3.694722578318e-01 4.244770399040e-01 6.305277421682e-01 -4.244770399040e-01 6.305277421682e-01 -4.244770399040e-01 3.694722578318e-01 4.244770399040e-01
1.178500000000e-02 3.721877562643e-01 4.248462673543e-01 6.278122437357e-01 -4.248462673543e-01 6.278122437357e-01 -4.248462673543e-01 3.721877562643e-01 4.248462673543e-01
1.185875000000e-02 3.748918271871e-01 4.251963896636e-01 6.251081728129e-01 -4.251963896636e-01 6.251081728129e-01 -4.251963896636e-01 3.748918271871e-01 4.251963896636e-01
1.193250000000e-02 3.775843852332e-01 4.255276616148e-01 6.224156147668e-01 -4.255276616148e-01 6.224156147668e-01 -4.255276616148e-01 3.775843852332e-01 4.255276616148e-01
1.200625000000e-02 3.802653490281e-01 4.258403363550e-01 6.197346509719e-01 -4.258403363550e-01 6.197346509719e-01 -4.258403363550e-01 3.802653490281e-01 4.258403363550e-01
1.208000000000e-02 3.829346411127e-01 4.261346653562e-01 6.170653588873e-01 -4.261346653562e-01 6.170653588873e-01 -4.261346653562e-01 3.829346411127e-01 4.261346653562e-01
1.215375000000e-02 3.855921878663e-01 4.264108983787e-01 6.144078121337e-01 -4.264108983787e-01 6.144078121337e-01 -4.264108983787e-01 3.855921878663e-01 4.264108983787e-01
1.222750000000e-02 3.882379194309e-01 4.266692834364e-01 6.117620805691e-01 -4.266692834364e-01 6.117620805691e-01 -4.266692834364e-01 3.882379194309e-01 4.266692834364e-01
1.230125000000e-02 3.908717696353e-01 4.269100667633e-01 6.091282303647e-01 -4.269100667633e-01 6.091282303647e-01 -4.269100667633e-01 3.908717696353e-01 4.269100667633e-01
1.237500000000e-02 3.934936759208e-01 4.271334927827e-01 6.065063240792e-01 -4.271334927827e-01 6.065063240792e-01 -4.271334927827e-01 3.934936759208e-01 4.271334927827e-01
1.244875000000e-02 3.961035792663e-01 4.273398040778e-01 6.038964207337e-01 -4.273398040778e-01 6.038964207337e-01 -4.273398040778e-01 3.961035792663e-01 4.273398040778e-01
1.252250000000e-02 3.987014241151e-01 4.275292413643e-01 6.012985758849e-01 -4.275292413643e-01 6.012985758849e-01 -4.275292413643e-01 3.987014241151e-01 4.275292413643e-01
1.259625000000e-02 4.012871583020e-01 4.277020434644e-01 5.987128416980e-01 -4.277020434644e-01 5.987128416980e-01 -4.277020434644e-01 4.012871583020e-01 4.277020434644e-01
1.267000000000e-02 4.038607329807e-01 4.278584472827e-01 5.961392670193e-01 -4.278584472827e-01 5.961392670193e-01 -4.278584472827e-01 4.038607329807e-01 4.278584472827e-01
1.274375000000e-02 4.064221025528e-01 4.279986877838e-01 5.935778974472e-01 -4.279986877838e-01 5.935778974472e-01 -4.279986877838e-01 4.064221025528e-01 4.279986877838e-01
1.281750000000e-02 4.089712245969e-01 4.281229979713e-01 5.910287754031e-01 -4.281229979713e-01 5.910287754031e-01 -4.281229979713e-01 4.089712245969e-01 4.281229979713e-01
1.289125000000e-02 4.115080597984e-01 4.282316088682e-01 5.884919402016e-01 -4.282316088682e-01 5.884919402016e-01 -4.282316088682e-01 4.115080597984e-01 4.282316088682e-01
1.296500000000e-02 4.140325718807e-01 4.283247494996e-01 5.859674281193e-01 -4.283247494996e-01 5.859674281193e-01 -4.283247494996e-01 4.140325718807e-01 4.283247494996e-01
1.303875000000e-02 4.165447275365e-01 4.284026468755e-01 5.834552724635e-01 -4.284026468755e-01 5.834552724635e-01 -4.284026468755e-01 4.165447275365e-01 4.284026468755e-01
1.311250000000e-02 4.190444963604e-01 4.284655259766e-01 5.809555036396e-01 -4.284655259766e-01 5.809555036396e-01 -4.284655259766e-01 4.190444963604e-01 4.284655259766e-01
1.318625000000e-02 4.215318507819e-01 4.285136097399e-01 5.784681492181e-01 -4.285136097399e-01 5.784681492181e-01 -4.285136097399e-01 4.215318507819e-01 4.285136097399e-01
1.326000000000e-02 4.240067660000e-01 4.285471190469e-01 5.759932340000e-01 -4.285471190469e-01 5.759932340000e-01 -4.285471190469e-01 4.240067660000e-01 4.285471190469e-01
1.333375000000e-02 4.264692199172e-01 4.285662727123e-01 5.735307800828e-01 -4.285662727123e-01 5.735307800828e-01 -4.285662727123e-01 4.264692199172e-01 4.285662727123e-01
1.340750000000e-02 4.289191930764e-01 4.285712874746e-01 5.710808069236e-01 -4.285712874746e-01 5.710808069236e-01 -4.285712874746e-01 4.289191930764e-01 4.285712874746e-01
1.348125000000e-02 4.313566685966e-01 4.285623779869e-01 5.686433314034e-01 -4.285623779869e-01 5.686433314034e-01 -4.285623779869e-01 4.313566685966e-01 4.285623779869e-01
1.355500000000e-02 4.337816321108e-01 4.285397568101e-01 5.662183678892e-01 -4.285397568101e-01 5.662183678892e-01 -4.285397568101e-01 4.337816321108e-01 4.285397568101e-01
1.362875000000e-02 4.361940717045e-01 4.285036344063e-01 5.638059282955e-01 -4.285036344063e-01 5.638059282955e-01 -4.285036344063e-01 4.361940717045e-01 4.285036344063e-01
1.370250000000e-02 4.385939778545e-01 4.284542191339e-01 5.614060221455e-01 -4.284542191339e-01 5.614060221455e-01 -4.284542191339e-01 4.385939778545e-01 4.284542191339e-01
1.377625000000e-02 4.409813433696e-01 4.283917172431e-01 5.590186566304e-01 -4.283917172431e-01 5.590186566304e-01 -4.283917172431e-01 4.409813433696e-01 4.283917172431e-01
1.385000000000e-02 4.433561633311e-01 4.283163328731e-01 5.566438366689e-01 -4.283163328731e-01 5.566438366689e-01 -4.283163328731e-01 4.433561633311e-01 4.283163328731e-01
1.392375000000e-02 4.457184350352e-01 4.282282680500e-01 5.542815649648e-01 -4.282282680500e-01 5.542815649648e-01 -4.282282680500e-01 4.457184350352e-01 4.282282680500e-01
1.399750000000e-02 4.480681579352e-01 4.281277226855e-01 5.519318420648e-01 -4.281277226855e-01 5.519318420648e-01 -4.281277226855e-01 4.480681579352e-01 4.281277226855e-01
1.407125000000e-02 4.504053335859e-01 4.280148945768e-01 5.495946664141e-01 -4.280148945768e-01 5.495946664141e-01 -4.280148945768e-01 4.504053335859e-01 4.280148945768e-01
1.414500000000e-02 4.527299655876e-01 4.278899794071e-01 5.472700344124e-01 -4.278899794071e-01 5.472700344124e-01 -4.278899794071e-01 4.527299655876e-01 4.278899794071e-01
1.421875000000e-02 4.550420595319e-01 4.277531707472e-01 5.449579404681e-01 -4.277531707472e-01 5.449579404681e-01 -4.277531707472e-01 4.550420595319e-01 4.277531707472e-01
1.429250000000e-02 4.573416229480e-01 4.276046600580e-01 5.426583770520e-01 -4.276046600580e-01 5.426583770520e-01 -4.276046600580e-01 4.573416229480e-01 4.276046600580e-01
1.436625000000e-02 4.596286652498e-01 4.274446366931e-01 5.403713347502e-01 -4.274446366931e-01 5.403713347502e-01 -4.274446366931e-01 4.596286652498e-01 4.274446366931e-01
1.444000000000e-02 4.619031976844e-01 4.272732879031e-01 5.380968023156e-01 -4.272732879031e-01 5.380968023156e-01 -4.272732879031e-01 4.619031976844e-01 4.272732879031e-01
1.451375000000e-02 4.641652332807e-01 4.270907988403e-01 5.358347667193e-01 -4.270907988403e-01 5.358347667193e-01 -4.270907988403e-01 4.641652332807e-01 4.270907988403e-01
1.458750000000e-02 4.664147867996e-01 4.268973525635e-01 5.335852132004e-01 -4.268973525635e-01 5.335852132004e-01 -4.268973525635e-01 4.664147867996e-01 4.268973525635e-01
1.466125000000e-02 4.686518746847e-01 4.266931300444e-01 5.313481253153e-01 -4.266931300444e-01 5.313481253153e-01 -4.266931300444e-01 4.686518746847e-01 4.266931300444e-01
1.473500000000e-02 4.708765150139e-01 4.264783101740e-01 5.291234849861e-01 -4.264783101740e-01 5.291234849861e-01 -4.264783101740e-01 4.708765150139e-01 4.264783101740e-01
1.480875000000e-02 4.730887274520e-01 4.262530697697e-01 5.269112725480e-01 -4.262530697697e-01 5.269112725480e-01 -4.262530697697e-01 4.730887274520e-01 4.262530697697e-01
1.488250000000e-02 4.752885332040e-01 4.260175835837e-01 5.247114667960e-01 -4.260175835837e-01 5.247114667960e-01 -4.260175835837e-01 4.752885332040e-01 4.260175835837e-01
1.495625000000e-02 4.774759549695e-01 4.257720243106e-01 5.225240450305e-01 -4.257720243106e-01 5.225240450305e-01 -4.257720243106e-01 4.774759549695e-01 4.257720243106e-01
1.503000000000e-02 4.796510168974e-01 4.255165625968e-01 5.203489831026e-01 -4.255165625968e-01 5.203489831026e-01 -4.255165625968e-01 4.796510168974e-01 4.255165625968e-01
1.510375000000e-02 4.818137445425e-01 4.252513670499e-01 5.181862554575e-01 -4.252513670499e-01 5.181862554575e-01 -4.252513670499e-01 4.818137445425e-01 4.252513670499e-01
1.517750000000e-02 4.839641648215e-01 4.249766042484e-01 5.160358351785e-01 -4.249766042484e-01 5.160358351785e-01 -4.249766042484e-01 4.839641648215e-01 4.249766042484e-01
1.525125000000e-02 4.861023059710e-01 4.246924387523e-01 5.138976940290e-01 -4.246924387523e-01 5.138976940290e-01 -4.246924387523e-01 4.861023059710e-01 4.246924387523e-01
1.532500000000e-02 4.882281975060e-01 4.243990331139e-01 5.117718024940e-01 -4.243990331139e-01 5.117718024940e-01 -4.243990331139e-01 4.882281975060e-01 4.243990331139e-01
1.539875000000e-02 4.903418701789e-01 4.240965478890e-01 5.096581298211e-01 -4.240965478890e-01 5.096581298211e-01 -4.240965478890e-01 4.903418701789e-01 4.240965478890e-01
1.547250000000e-02 4.924433559395e-01 4.237851416485e-01 5.075566440605e-01 -4.237851416485e-01 5.075566440605e-01 -4.237851416485e-01 4.924433559395e-01 4.237851416485e-01
1.554625000000e-02 4.945326878962e-01 4.234649709906e-01 5.054673121038e-01 -4.234649709906e-01 5.054673121038e-01 -4.234649709906e-01 4.945326878962e-01 4.234649709906e-01
1.562000000000e-02 4.966099002771e-01 4.231361905530e-01 5.033900997229e-01 -4.231361905530e-01 5.033900997229e-01 -4.231361905530e-01 4.966099002771e-01 4.231361905530e-01
1.569375000000e-02 4.986750283927e-01 4.227989530260e-01 5.013249716073e-01 -4.227989530260e-01 5.013249716073e-01 -4.227989530260e-01 4.986750283927e-01 4.227989530260e-01
1.576750000000e-02 5.007281085992e-01 4.224534091650e-01 4.992718914008e-01 -4.224534091650e-01 4.992718914008e-01 -4.224534091650e-01 5.007281085992e-01 4.224534091650e-01
1.584125000000e-02 5.027691782619e-01 4.220997078045e-01 4.972308217381e-01 -4.220997078045e-01 4.972308217381e-01 -4.220997078045e-01 5.027691782619e-01 4.220997078045e-01
1.591500000000e-02 5.047982757205e-01 4.217379958712e-01 4.952017242795e-01 -4.217379958712e-01 4.952017242795e-01 -4.217379958712e-01 5.047982757205e-01 4.217379958712e-01
1.598875000000e-02 5.068154402542e-01 4.213684183984e-01 4.931845597458e-01 -4.213684183984e-01 4.931845597458e-01 -4.213684183984e-01 5.068154402542e-01 4.213684183984e-01
1.606250000000e-02 5.088207120477e-01 4.209911185397e-01 4.911792879523e-01 -4.209911185397e-01 4.911792879523e-01 -4.209911185397e-01 5.088207120477e-01 4.209911185397e-01
1.613625000000e-02 5.108141321586e-01 4.206062375838e-01 4.891858678414e-01 -4.206062375838e-01 4.891858678414e-01 -4.206062375838e-01 5.108141321586e-01 4.206062375838e-01
1.621000000000e-02 5.127957424844e-01 4.202139149691e-01 4.872042575156e-01 -4.202139149691e-01 4.872042575156e-01 -4.202139149691e-01 5.127957424844e-01 4.202139149691e-01
1.628375000000e-02 5.147655857314e-01 4.198142882981e-01 4.852344142686e-01 -4.198142882981e-01 4.852344142686e-01 -4.198142882981e-01 5.147655857314e-01 4.198142882981e-01
1.635750000000e-02 5.167237053830e-01 4.194074933531e-01 4.832762946170e-01 -4.194074933531e-01 4.832762946170e-01 -4.194074933531e-01 5.167237053830e-01 4.194074933531e-01
1.643125000000e-02 5.186701456700e-01 4.189936641107e-01 4.813298543300e-01 -4.189936641107e-01 4.813298543300e-01 -4.189936641107e-01 5.186701456700e-01 4.189936641107e-01
1.650500000000e-02 5.206049515409e-01 4.185729327579e-01 4.793950484591e-01 -4.185729327579e-01 4.793950484591e-01 -4.185729327579e-01 5.206049515409e-01 4.185729327579e-01
1.657875000000e-02 5.225281686324e-01 4.181454297070e-01 4.774718313676e-01 -4.181454297070e-01 4.774718313676e-01 -4.181454297070e-01 5.225281686324e-01 4.181454297070e-01
1.665250000000e-02 5.244398432417e-01 4.177112836115e-01 4.755601567583e-01 -4.177112836115e-01 4.755601567583e-01 -4.177112836115e-01 5.244398432417e-01 4.177112836115e-01
1.672625000000e-02 5.263400222986e-01 4.172706213818e-01 4.736599777014e-01 -4.172706213818e-01 4.736599777014e-01 -4.172706213818e-01 5.263400222986e-01 4.172706213818e-01
1.680000000000e-02 5.282287533383e-01 4.168235682013e-01 4.717712466617e-01 -4.168235682013e-01 4.717712466617e-01 -4.168235682013e-01 5.282287533383e-01 4.168235682013e-01
1.687375000000e-02 5.301060844752e-01 4.163702475421e-01 4.698939155248e-01 -4.163702475421e-01 4.698939155248e-01 -4.163702475421e-01 5.301060844752e-01 4.163702475421e-01
1.694750000000e-02 5.319720643771e-01 4.159107811812e-01 4.680279356229e-01 -4.159107811812e-01 4.680279356229e-01 -4.159107811812e-01 5.319720643771e-01 4.159107811812e-01
1.702125000000e-02 5.338267422400e-01 4.154452892166e-01 4.661732577600e-01 -4.154452892166e-01 4.661732577600e-01 -4.154452892166e-01 5.338267422400e-01 4.154452892166e-01
1.709500000000e-02 5.356701677633e-01 4.149738900838e-01 4.643298322367e-01 -4.149738900838e-01 4.643298322367e-01 -4.149738900838e-01 5.356701677633e-01 4.149738900838e-01
1.716875000000e-02 5.375023911263e-01 4.144967005715e-01 4.624976088737e-01 -4.144967005715e-01 4.624976088737e-01 -4.144967005715e-01 5.375023911263e-01 4.144967005715e-01
1.724250000000e-02 5.393234629642e-01 4.140138358384e-01 4.606765370358e-01 -4.140138358384e-01 4.606765370358e-01 -4.140138358384e-01 5.393234629642e-01 4.140138358384e-01
1.731625000000e-02 5.411334343456e-01 4.135254094295e-01 4.588665656544e-01 -4.135254094295e-01 4.588665656544e-01 -4.135254094295e-01 5.411334343456e-01 4.135254094295e-01
1.739000000000e-02 5.429323567502e-01 4.130315332924e-01 4.570676432498e-01 -4.130315332924e-01 4.570676432498e-01 -4.130315332924e-01 5.429323567502e-01 4.130315332924e-01
1.746375000000e-02 5.447202820468e-01 4.125323177935e-01 4.552797179532e-01 -4.125323177935e-01 4.552797179532e-01 -4.125323177935e-01 5.447202820468e-01 4.125323177935e-01
1.753750000000e-02 5.464972624726e-01 4.120278717350e-01 4.535027375274e-01 -4.120278717350e-01 4.535027375274e-01 -4.120278717350e-01 5.464972624726e-01 4.120278717350e-01
1.761125000000e-02 5.482633506117e-01 4.115183023707e-01 4.517366493883e-01 -4.115183023707e-01 4.517366493883e-01 -4.115183023707e-01 5.482633506117e-01 4.115183023707e-01
1.768500000000e-02 5.500185993759e-01 4.110037154228e-01 4.499814006241e-01 -4.110037154228e-01 4.499814006241e-01 -4.110037154228e-01 5.500185993759e-01 4.110037154228e-01
1.775875000000e-02 5.517630619842e-01 4.104842150983e-01 4.482369380158e-01 -4.104842150983e-01 4.482369380158e-01 -4.104842150983e-01 5.517630619842e-01 4.104842150983e-01
1.783250000000e-02 5.534967919443e-01 4.099599041052e-01 4.465032080557e-01 -4.099599041052e-01 4.465032080557e-01 -4.099599041052e-01 5.534967919443e-01 4.099599041052e-01
1.790625000000e-02 5.552198430335e-01 4.094308836690e-01 4.447801569665e-01 -4.094308836690e-01 4.447801569665e-01 -4.094308836690e-01 5.552198430335e-01 4.094308836690e-01
1.798000000000e-02 5.569322692808e-01 4.088972535493e-01 4.430677307192e-01 -4.088972535493e-01 4.430677307192e-01 -4.088972535493e-01 5.569322692808e-01 4.088972535493e-01
1.805375000000e-02 5.586341249490e-01 4.083591120555e-01 4.413658750510e-01 -4.083591120555e-01 4.413658750510e-01 -4.083591120555e-01 5.586341249490e-01 4.083591120555e-01
1.812750000000e-02 5.603254645175e-01 4.078165560637e-01 4.396745354825e-01 -4.078165560637e-01 4.396745354825e-01 -4.078165560637e-01 5.603254645175e-01 4.078165560637e-01
1.820125000000e-02 5.620063426658e-01 4.072696810326e-01 4.379936573342e-01 -4.072696810326e-01 4.379936573342e-01 -4.072696810326e-01 5.620063426658e-01 4.072696810326e-01
1.827500000000e-02 5.636768142568e-01 4.067185810196e-01 4.363231857432e-01 -4.067185810196e-01 4.363231857432e-01 -4.067185810196e-01 5.636768142568e-01 4.067185810196e-01
1.834875000000e-02 5.653369343209e-01 4.061633486971e-01 4.346630656791e-01 -4.061633486971e-01 4.346630656791e-01 -4.061633486971e-01 5.653369343209e-01 4.061633486971e-01
1.842250000000e-02 5.669867580408e-01 4.056040753686e-01 4.330132419592e-01 -4.056040753686e-01 4.330132419592e-01 -4.056040753686e-01 5.669867580408e-01 4.056040753686e-01
1.849625000000e-02 5.686263407364e-01 4.050408509845e-01 4.313736592636e-01 -4.050408509845e-01 4.313736592636e-01 -4.050408509845e-01 5.686263407364e-01 4.050408509845e-01
1.857000000000e-02 5.702557378500e-01 4.044737641578e-01 4.297442621500e-01 -4.044737641578e-01 4.297442621500e-01 -4.044737641578e-01 5.702557378500e-01 4.044737641578e-01
1.864375000000e-02 5.718750049320e-01 4.039029021807e-01 4.281249950680e-01 -4.039029021807e-01 4.281249950680e-01 -4.039029021807e-01 5.718750049320e-01 4.039029021807e-01
1.871750000000e-02 5.734841976275e-01 4.033283510395e-01 4.265158023725e-01 -4.033283510395e-01 4.265158023725e-01 -4.033283510395e-01 5.734841976275e-01 4.033283510395e-01
1.879125000000e-02 5.750833716624e-01 4.027501954307e-01 4.249166283376e-01 -4.027501954307e-01 4.249166283376e-01 -4.027501954307e-01 5.750833716624e-01 4.027501954307e-01
1.886500000000e-02 5.766725828305e-01 4.021685187765e-01 4.233274171695e-01 -4.021685187765e-01 4.233274171695e-01 -4.021685187765e-01 5.766725828305e-01 4.021685187765e-01
1.893875000000e-02 5.782518869808e-01 4.015834032404e-01 4.217481130192e-01 -4.015834032404e-01 4.217481130192e-01 -4.015834032404e-01 5.782518869808e-01 4.015834032404e-01
1.901250000000e-02 5.798213400053e-01 4.009949297422e-01 4.201786599947e-01 -4.009949297422e-01 4.201786599947e-01 -4.009949297422e-01 5.798213400053e-01 4.009949297422e-01
1.908625000000e-02 5.813809978268e-01 4.004031779741e-01 4.186190021732e-01 -4.004031779741e-01 4.186190021732e-01 -4.004031779741e-01 5.813809978268e-01 4.004031779741e-01
1.916000000000e-02 5.829309163874e-01 3.998082264148e-01 4.170690836126e-01 -3.998082264148e-01 4.170690836126e-01 -3.998082264148e-01 5.829309163874e-01 3.998082264148e-01
1.923375000000e-02 5.844711516372e-01 3.992101523456e-01 4.155288483628e-01 -3.992101523456e-01 4.155288483628e-01 -3.992101523456e-01 5.844711516372e-01 3.992101523456e-01
1.930750000000e-02 5.860017595232e-01 3.986090318648e-01 4.139982404768e-01 -3.986090318648e-01 4.139982404768e-01 -3.986090318648e-01 5.860017595232e-01 3.986090318648e-01
1.938125000000e-02 5.875227959791e-01 3.980049399028e-01 4.124772040209e-01 -3.980049399028e-01 4.124772040209e-01 -3.980049399028e-01 5.875227959791e-01 3.980049399028e-01
1.945500000000e-02 5.890343169145e-01 3.973979502367e-01 4.109656830855e-01 -3.973979502367e-01 4.109656830855e-01 -3.973979502367e-01 5.890343169145e-01 3.973979502367e-01
1.952875000000e-02 5.905363782051e-01 3.967881355055e-01 4.094636217949e-01 -3.967881355055e-01 4.094636217949e-01 -3.967881355055e-01 5.905363782051e-01 3.967881355055e-01
1.960250000000e-02 5.920290356833e-01 3.961755672237e-01 4.079709643167e-01 -3.961755672237e-01 4.079709643167e-01 -3.961755672237e-01 5.920290356833e-01 3.961755672237e-01
1.967625000000e-02 5.935123451284e-01 3.955603157966e-01 4.064876548716e-01 -3.955603157966e-01 4.064876548716e-01 -3.955603157966e-01 5.935123451284e-01 3.955603157966e-01
1.975000000000e-02 5.949863622575e-01 3.949424505343e-01 4.050136377425e-01 -3.949424505343e-01 4.050136377425e-01 -3.949424505343e-01 5.949863622575e-01 3.949424505343e-01
1.982375000000e-02 5.964511427172e-01 3.943220396657e-01 4.035488572828e-01 -3.943220396657e-01 4.035488572828e-01 -3.943220396657e-01 5.964511427172e-01 3.943220396657e-01
1.989750000000e-02 5.979067420746e-01 3.936991503528e-01 4.020932579254e-01 -3.936991503528e-01 4.020932579254e-01 -3.936991503528e-01 5.979067420746e-01 3.936991503528e-01
1.997125000000e-02 5.993532158090e-01 3.930738487049e-01 4.006467841910e-01 -3.930738487049e-01 4.006467841910e-01 -3.930738487049e-01 5.993532158090e-01 3.930738487049e-01
2.004500000000e-02 6.007906193045e-01 3.924461997918e-01 3.992093806955e-01 -3.924461997918e-01 3.992093806955e-01 -3.924461997918e-01 6.007906193045e-01 3.924461997918e-01
2.011875000000e-02 6.022190078416e-01 3.918162676579e-01 3.977809921584e-01 -3.918162676579e-01 3.977809921584e-01 -3.918162676579e-01 6.022190078416e-01 3.918162676579e-01
2.019250000000e-02 6.036384365900e-01 3.911841153359e-01 3.963615634100e-01 -3.911841153359e-01 3.963615634100e-01 -3.911841153359e-01 6.036384365900e-01 3.911841153359e-01
2.026625000000e-02 6.050489606016e-01 3.905498048601e-01 3.949510393984e-01 -3.905498048601e-01 3.949510393984e-01 -3.905498048601e-01 6.050489606016e-01 3.905498048601e-01
2.034000000000e-02 6.064506348032e-01 3.899133972796e-01 3.935493651968e-01 -3.899133972796e-01 3.935493651968e-01 -3.899133972796e-01 6.064506348032e-01 3.899133972796e-01
2.041375000000e-02 6.078435139898e-01 3.892749526716e-01 3.921564860102e-01 -3.892749526716e-01 3.921564860102e-01 -3.892749526716e-01 6.078435139898e-01 3.892749526716e-01
2.048750000000e-02 6.092276528184e-01 3.886345301547e-01 3.907723471816e-01 -3.886345301547e-01 3.907723471816e-01 -3.886345301547e-01 6.092276528184e-01 3.886345301547e-01
2.056125000000e-02 6.106031058013e-01 3.879921879016e-01 3.893968941987e-01 -3.879921879016e-01 3.893968941987e-01 -3.879921879016e-01 6.106031058013e-01 3.879921879016e-01
2.063500000000e-02 6.119699273003e-01 3.873479831518e-01 3.880300726997e-01 -3.873479831518e-01 3.880300726997e-01 -3.873479831518e-01 6.119699273003e-01 3.873479831518e-01
2.070875000000e-02 6.133281715210e-01 3.867019722247e-01 3.866718284790e-01 -3.867019722247e-01 3.866718284790e-01 -3.867019722247e-01 6.133281715210e-01 3.867019722247e-01
2.078250000000e-02 6.146778925066e-01 3.860542105318e-01 3.853221074934e-01 -3.860542105318e-01 3.853221074934e-01 -3.860542105318e-01 6.146778925066e-01 3.860542105318e-01
2.085625000000e-02 6.160191441331e-01 3.854047525893e-01 3.839808558669e-01 -3.854047525893e-01 3.839808558669e-01 -3.854047525893e-01 6.160191441331e-01 3.854047525893e-01
2.093000000000e-02 6.173519801039e-01 3.847536520305e-01 3.826480198961e-01 -3.847536520305e-01 3.826480198961e-01 -3.847536520305e-01 6.173519801039e-01 3.847536520305e-01
2.100375000000e-02 6.186764539445e-01 3.841009616177e-01 3.813235460555e-01 -3.841009616177e-01 3.813235460555e-01 -3.841009616177e-01 6.186764539445e-01 3.841009616177e-01
2.107750000000e-02 6.199926189979e-01 3.834467332544e-01 3.800073810021e-01 -3.834467332544e-01 3.800073810021e-01 -3.834467332544e-01 6.199926189979e-01 3.834467332544e-01
2.115125000000e-02 6.213005284200e-01 3.827910179972e-01 3.786994715800e-01 -3.827910179972e-01 3.786994715800e-01 -3.827910179972e-01 6.213005284200e-01 3.827910179972e-01
2.122500000000e-02 6.226002351750e-01 3.821338660676e-01 3.773997648250e-01 -3.821338660676e-01 3.773997648250e-01 -3.821338660676e-01 6.226002351750e-01 3.821338660676e-01
2.129875000000e-02 6.238917920310e-01 3.814753268637e-01 3.761082079690e-01 -3.814753268637e-01 3.761082079690e-01 -3.814753268637e-01 6.238917920310e-01 3.814753268637e-01
2.137250000000e-02 6.251752515564e-01 3.808154489716e-01 3.748247484436e-01 -3.808154489716e-01 3.748247484436e-01 -3.808154489716e-01 6.251752515564e-01 3.808154489716e-01
2.144625000000e-02 6.264506661151e-01 3.801542801770e-01 3.735493338849e-01 -3.801542801770e-01 3.735493338849e-01 -3.801542801770e-01 6.264506661151e-01 3.801542801770e-01
2.152000000000e-02 6.277180878635e-01 3.794918674762e-01 3.722819121365e-01 -3.794918674762e-01 3.722819121365e-01 -3.794918674762e-01 6.277180878635e-01 3.794918674762e-01
2.159375000000e-02 6.289775687466e-01 3.788282570874e-01 3.710224312534e-01 -3.788282570874e-01 3.710224312534e-01 -3.788282570874e-01 6.289775687466e-01 3.788282570874e-01
2.166750000000e-02 6.302291604943e-01 3.781634944617e-01 3.697708395057e-01 -3.781634944617e-01 3.697708395057e-01 -3.781634944617e-01 6.302291604943e-01 3.781634944617e-01
2.174125000000e-02 6.314729146183e-01 3.774976242941e-01 3.685270853817e-01 -3.774976242941e-01 3.685270853817e-01 -3.774976242941e-01 6.314729146183e-01 3.774976242941e-01
2.181500000000e-02 6.327088824091e-01 3.768306905341e-01 3.672911175909e-01 -3.768306905341e-01 3.672911175909e-01 -3.768306905341e-01 6.327088824091e-01 3.768306905341e-01
2.188875000000e-02 6.339371149326e-01 3.761627363963e-01 3.660628850674e-01 -3.761627363963e-01 3.660628850674e-01 -3.761627363963e-01 6.339371149326e-01 3.761627363963e-01
2.196250000000e-02 6.351576630274e-01 3.754938043711e-01 3.648423369726e-01 -3.754938043711e-01 3.648423369726e-01 -3.754938043711e-01 6.351576630274e-01 3.754938043711e-01
2.203625000000e-02 6.363705773021e-01 3.748239362348e-01 3.636294226979e-01 -3.748239362348e-01 3.636294226979e-01 -3.748239362348e-01 6.363705773021e-01 3.748239362348e-01
2.211000000000e-02 6.375759081327e-01 3.741531730603e-01 3.624240918673e-01 -3.741531730603e-01 3.624240918673e-01 -3.741531730603e-01 6.375759081327e-01 3.741531730603e-01
2.218375000000e-02 6.387737056597e-01 3.734815552268e-01 3.612262943403e-01 -3.734815552268e-01 3.612262943403e-01 -3.734815552268e-01 6.387737056597e-01 3.734815552268e-01
2.225750000000e-02 6.399640197866e-01 3.728091224301e-01 3.600359802134e-01 -3.728091224301e-01 3.600359802134e-01 -3.728091224301e-01 6.399640197866e-01 3.728091224301e-01
2.233125000000e-02 6.411469001766e-01 3.721359136923e-01 3.588530998234e-01 -3.721359136923e-01 3.588530998234e-01 -3.721359136923e-01 6.411469001766e-01 3.721359136923e-01
2.240500000000e-02 6.423223962515e-01 3.714619673716e-01 3.576776037485e-01 -3.714619673716e-01 3.576776037485e-01 -3.714619673716e-01 6.423223962515e-01 3.714619673716e-01
2.247875000000e-02 6.434905571888e-01 3.707873211723e-01 3.565094428112e-01 -3.707873211723e-01 3.565094428112e-01 -3.707873211723e-01 6.434905571888e-01 3.707873211723e-01
2.255250000000e-02 6.446514319206e-01 3.701120121536e-01 3.553485680794e-01 -3.701120121536e-01 3.553485680794e-01 -3.701120121536e-01 6.446514319206e-01 3.701120121536e-01
2.262625000000e-02 6.458050691311e-01 3.694360767399e-01 3.541949308689e-01 -3.694360767399e-01 3.541949308689e-01 -3.694360767399e-01 6.458050691311e-01 3.694360767399e-01
2.270000000000e-02 6.469515172556e-01 3.687595507293e-01 3.530484827444e-01 -3.687595507293e-01 3.530484827444e-01 -3.687595507293e-01 6.469515172556e-01 3.687595507293e-01
2.277375000000e-02 6.480908244784e-01 3.680824693033e-01 3.519091755216e-01 -3.680824693033e-01 3.519091755216e-01 -3.680824693033e-01 6.480908244784e-01 3.680824693033e-01
2.284750000000e-02 6.492230387315e-01 3.674048670357e-01 3.507769612685e-01 -3.674048670357e-01 3.507769612685e-01 -3.674048670357e-01 6.492230387315e-01 3.674048670357e-01
2.292125000000e-02 6.503482076935e-01 3.667267779014e-01 3.496517923065e-01 -3.667267779014e-01 3.496517923065e-01 -3.667267779014e-01 6.503482076935e-01 3.667267779014e-01
2.299500000000e-02 6.514663787880e-01 3.660482352856e-01 3.485336212120e-01 -3.660482352856e-01 3.485336212120e-01 -3.660482352856e-01 6.514663787880e-01 3.660482352856e-01
2.306875000000e-02 6.525775991823e-01 3.653692719920e-01 3.474224008177e-01 -3.653692719920e-01 3.474224008177e-01 -3.653692719920e-01 6.525775991823e-01 3.653692719920e-01
2.314250000000e-02 6.536819157869e-01 3.646899202519e-01 3.463180842131e-01 -3.646899202519e-01 3.463180842131e-01 -3.646899202519e-01 6.536819157869e-01 3.646899202519e-01
2.321625000000e-02 6.547793752538e-01 3.640102117324e-01 3.452206247462e-01 -3.640102117324e-01 3.452206247462e-01 -3.640102117324e-01 6.547793752538e-01 3.640102117324e-01
2.329000000000e-02 6.558700239762e-01 3.633301775449e-01 3.441299760238e-01 -3.633301775449e-01 3.441299760238e-01 -3.633301775449e-01 6.558700239762e-01 3.633301775449e-01
2.336375000000e-02 6.569539080870e-01 3.626498482532e-01 3.430460919130e-01 -3.626498482532e-01 3.430460919130e-01 -3.626498482532e-01 6.569539080870e-01 3.626498482532e-01
2.343750000000e-02 6.580310734589e-01 3.619692538820e-01 3.419689265411e-01 -3.619692538820e-01 3.419689265411e-01 -3.619692538820e-01 6.580310734589e-01 3.619692538820e-01
2.351125000000e-02 6.591015657027e-01 3.612884239247e-01 3.408984342973e-01 -3.612884239247e-01 3.408984342973e-01 -3.612884239247e-01 6.591015657027e-01 3.612884239247e-01
2.358500000000e-02 6.601654301676e-01 3.606073873514e-01 3.398345698324e-01 -3.606073873514e-01 3.398345698324e-01 -3.606073873514e-01 6.601654301676e-01 3.606073873514e-01
2.365875000000e-02 6.612227119403e-01 3.599261726168e-01 3.387772880597e-01 -3.599261726168e-01 3.387772880597e-01 -3.599261726168e-01 6.612227119403e-01 3.599261726168e-01
2.373250000000e-02 6.622734558444e-01 3.592448076678e-01 3.377265441556e-01 -3.592448076678e-01 3.377265441556e-01 -3.592448076678e-01 6.622734558444e-01 3.592448076678e-01
2.380625000000e-02 6.633177064402e-01 3.585633199513e-01 3.366822935598e-01 -3.585633199513e-01 3.366822935598e-01 -3.585633199513e-01 6.633177064402e-01 3.585633199513e-01
2.388000000000e-02 6.643555080244e-01 3.578817364218e-01 3.356444919756e-01 -3.578817364218e-01 3.356444919756e-01 -3.578817364218e-01 6.643555080244e-01 3.578817364218e-01
2.395375000000e-02 6.653869046298e-01 3.572000835484e-01 3.346130953702e-01 -3.572000835484e-01 3.346130953702e-01 -3.572000835484e-01 6.653869046298e-01 3.572000835484e-01
2.402750000000e-02 6.664119400250e-01 3.565183873228e-01 3.335880599750e-01 -3.565183873228e-01 3.335880599750e-01 -3.565183873228e-01 6.664119400250e-01 3.565183873228e-01
2.410125000000e-02 6.674306577145e-01 3.558366732659e-01 3.325693422855e-01 -3.558366732659e-01 3.325693422855e-01 -3.558366732659e-01 6.674306577145e-01 3.558366732659e-01
2.417500000000e-02 6.684431009383e-01 3.551549664353e-01 3.315568990617e-01 -3.551549664353e-01 3.315568990617e-01 -3.551549664353e-01 6.684431009383e-01 3.551549664353e-01
2.424875000000e-02 6.694493126722e-01 3.544732914324e-01 3.305506873278e-01 -3.544732914324e-01 3.305506873278e-01 -3.544732914324e-01 6.694493126722e-01 3.544732914324e-01
2.432250000000e-02 6.704493356277e-01 3.537916724088e-01 3.295506643723e-01 -3.537916724088e-01 3.295506643723e-01 -3.537916724088e-01 6.704493356277e-01 3.537916724088e-01
2.439625000000e-02 6.714432122521e-01 3.531101330740e-01 3.285567877479e-01 -3.531101330740e-01 3.285567877479e-01 -3.531101330740e-01 6.714432122521e-01 3.531101330740e-01
2.447000000000e-02 6.724309847286e-01 3.524286967013e-01 3.275690152714e-01 -3.524286967013e-01 3.275690152714e-01 -3.524286967013e-01 6.724309847286e-01 3.524286967013e-01
2.454375000000e-02 6.734126949765e-01 3.517473861351e-01 3.265873050235e-01 -3.517473861351e-01 3.265873050235e-01 -3.517473861351e-01 6.734126949765e-01 3.517473861351e-01
2.461750000000e-02 6.743883846517e-01 3.510662237971e-01 3.256116153483e-01 -3.510662237971e-01 3.256116153483e-01 -3.510662237971e-01 6.743883846517e-01 3.510662237971e-01
2.469125000000e-02 6.753580951466e-01 3.503852316929e-01 3.246419048534e-01 -3.503852316929e-01 3.246419048534e-01 -3.503852316929e-01 6.753580951466e-01 3.503852316929e-01
2.476500000000e-02 6.763218675906e-01 3.497044314182e-01 3.236781324094e-01 -3.497044314182e-01 3.236781324094e-01 -3.497044314182e-01 6.763218675906e-01 3.497044314182e-01
2.483875000000e-02 6.772797428506e-01 3.490238441656e-01 3.227202571494e-01 -3.490238441656e-01 3.227202571494e-01 -3.490238441656e-01 6.772797428506e-01 3.490238441656e-01
2.491250000000e-02 6.782317615312e-01 3.483434907303e-01 3.217682384688e-01 -3.483434907303e-01 3.217682384688e-01 -3.483434907303e-01 6.782317615312e-01 3.483434907303e-01
2.498625000000e-02 6.791779639753e-01 3.476633915163e-01 3.208220360247e-01 -3.476633915163e-01 3.208220360247e-01 -3.476633915163e-01 6.791779639753e-01 3.476633915163e-01
2.506000000000e-02 6.801183902647e-01 3.469835665426e-01 3.198816097353e-01 -3.469835665426e-01 3.198816097353e-01 -3.469835665426e-01 6.801183902647e-01 3.469835665426e-01
2.513375000000e-02 6.810530802205e-01 3.463040354491e-01 3.189469197795e-01 -3.463040354491e-01 3.189469197795e-01 -3.463040354491e-01 6.810530802205e-01 3.463040354491e-01
2.520750000000e-02 6.819820734034e-01 3.456248175025e-01 3.180179265966e-01 -3.456248175025e-01 3.180179265966e-01 -3.456248175025e-01 6.819820734034e-01 3.456248175025e-01
2.528125000000e-02 6.829054091150e-01 3.449459316018e-01 3.170945908850e-01 -3.449459316018e-01 3.170945908850e-01 -3.449459316018e-01 6.829054091150e-01 3.449459316018e-01
2.535500000000e-02 6.838231263979e-01 3.442673962844e-01 3.161768736021e-01 -3.442673962844e-01 3.161768736021e-01 -3.442673962844e-01 6.838231263979e-01 3.442673962844e-01
2.542875000000e-02 6.847352640366e-01 3.435892297316e-01 3.152647359634e-01 -3.435892297316e-01 3.152647359634e-01 -3.435892297316e-01 6.847352640366e-01 3.435892297316e-01
2.550250000000e-02 6.856418605580e-01 3.429114497739e-01 3.143581394420e-01 -3.429114497739e-01 3.143581394420e-01 -3.429114497739e-01 6.856418605580e-01 3.429114497739e-01
2.557625000000e-02 6.865429542324e-01 3.422340738966e-01 3.134570457676e-01 -3.422340738966e-01 3.134570457676e-01 -3.422340738966e-01 6.865429542324e-01 3.422340738966e-01
2.565000000000e-02 6.874385830743e-01 3.415571192456e-01 3.125614169257e-01 -3.415571192456e-01 3.125614169257e-01 -3.415571192456e-01 6.874385830743e-01 3.415571192456e-01
2.572375000000e-02 6.883287848429e-01 3.408806026318e-01 3.116712151571e-01 -3.408806026318e-01 3.116712151571e-01 -3.408806026318e-01 6.883287848429e-01 3.408806026318e-01
2.579750000000e-02 6.892135970430e-01 3.402045405373e-01 3.107864029570e-01 -3.402045405373e-01 3.107864029570e-01 -3.402045405373e-01 6.892135970430e-01 3.402045405373e-01
2.587125000000e-02 6.900930569263e-01 3.395289491197e-01 3.099069430737e-01 -3.395289491197e-01 3.099069430737e-01 -3.395289491197e-01 6.900930569263e-01 3.395289491197e-01
2.594500000000e-02 6.909672014918e-01 3.388538442180e-01 3.090327985082e-01 -3.388538442180e-01 3.090327985082e-01 -3.388538442180e-01 6.909672014918e-01 3.388538442180e-01
2.601875000000e-02 6.918360674865e-01 3.381792413568e-01 3.081639325135e-01 -3.381792413568e-01 3.081639325135e-01 -3.381792413568e-01 6.918360674865e-01 3.381792413568e-01
2.609250000000e-02 6.926996914072e-01 3.375051557519e-01 3.073003085928e-01 -3.375051557519e-01 3.073003085928e-01 -3.375051557519e-01 6.926996914072e-01 3.375051557519e-01
2.616625000000e-02 6.935581095006e-01 3.368316023147e-01 3.064418904994e-01 -3.368316023147e-01 3.064418904994e-01 -3.368316023147e-01 6.935581095006e-01 3.368316023147e-01
2.624000000000e-02 6.944113577648e-01 3.361585956572e-01 3.055886422352e-01 -3.361585956572e-01 3.055886422352e-01 -3.361585956572e-01 6.944113577648e-01 3.361585956572e-01
2.631375000000e-02 6.952594719497e-01 3.354861500969e-01 3.047405280503e-01 -3.354861500969e-01 3.047405280503e-01 -3.354861500969e-01 6.952594719497e-01 3.354861500969e-01
2.638750000000e-02 6.961024875588e-01 3.348142796609e-01 3.038975124412e-01 -3.348142796609e-01 3.038975124412e-01 -3.348142796609e-01 6.961024875588e-01 3.348142796609e-01
2.646125000000e-02 6.969404398497e-01 3.341429980910e-01 3.030595601503e-01 -3.341429980910e-01 3.030595601503e-01 -3.341429980910e-01 6.969404398497e-01 3.341429980910e-01
2.653500000000e-02 6.977733638353e-01 3.334723188481e-01 3.022266361647e-01 -3.334723188481e-01 3.022266361647e-01 -3.334723188481e-01 6.977733638353e-01 3.334723188481e-01
2.660875000000e-02 6.986012942846e-01 3.328022551166e-01 3.013987057154e-01 -3.328022551166e-01 3.013987057154e-01 -3.328022551166e-01 6.986012942846e-01 3.328022551166e-01
2.668250000000e-02 6.994242657244e-01 3.321328198085e-01 3.005757342756e-01 -3.321328198085e-01 3.005757342756e-01 -3.321328198085e-01 6.994242657244e-01 3.321328198085e-01
2.675625000000e-02 7.002423124398e-01 3.314640255683e-01 2.997576875602e-01 -3.314640255683e-01 2.997576875602e-01 -3.314640255683e-01 7.002423124398e-01 3.314640255683e-01
2.683000000000e-02 7.010554684755e-01 3.307958847768e-01 2.989445315245e-01 -3.307958847768e-01 2.989445315245e-01 -3.307958847768e-01 7.010554684755e-01 3.307958847768e-01
2.690375000000e-02 7.018637676371e-01 3.301284095556e-01 2.981362323629e-01 -3.301284095556e-01 2.981362323629e-01 -3.301284095556e-01 7.018637676371e-01 3.301284095556e-01
2.697750000000e-02 7.026672434921e-01 3.294616117710e-01 2.973327565079e-01 -3.294616117710e-01 2.973327565079e-01 -3.294616117710e-01 7.026672434921e-01 3.294616117710e-01
2.705125000000e-02 7.034659293708e-01 3.287955030380e-01 2.965340706292e-01 -3.287955030380e-01 2.965340706292e-01 -3.287955030380e-01 7.034659293708e-01 3.287955030380e-01
2.712500000000e-02 7.042598583681e-01 3.281300947247e-01 2.957401416319e-01 -3.281300947247e-01 2.957401416319e-01 -3.281300947247e-01 7.042598583681e-01 3.281300947247e-01
2.719875000000e-02 7.050490633439e-01 3.274653979558e-01 2.949509366561e-01 -3.274653979558e-01 2.949509366561e-01 -3.274653979558e-01 7.050490633439e-01 3.274653979558e-01
2.727250000000e-02 7.058335769250e-01 3.268014236170e-01 2.941664230750e-01 -3.268014236170e-01 2.941664230750e-01 -3.268014236170e-01 7.058335769250e-01 3.268014236170e-01
2.734625000000e-02 7.066134315059e-01 3.261381823583e-01 2.933865684941e-01 -3.261381823583e-01 2.933865684941e-01 -3.261381823583e-01 7.066134315059e-01 3.261381823583e-01
2.742000000000e-02 7.073886592499e-01 3.254756845980e-01 2.926113407501e-01 -3.254756845980e-01 2.926113407501e-01 -3.254756845980e-01 7.073886592499e-01 3.254756845980e-01
2.749375000000e-02 7.081592920907e-01 3.248139405267e-01 2.918407079093e-01 -3.248139405267e-01 2.918407079093e-01 -3.248139405267e-01 7.081592920907e-01 3.248139405267e-01
2.756750000000e-02 7.089253617334e-01 3.241529601105e-01 2.910746382666e-01 -3.241529601105e-01 2.910746382666e-01 -3.241529601105e-01 7.089253617334e-01 3.241529601105e-01
2.764125000000e-02 7.096868996556e-01 3.234927530948e-01 2.903131003444e-01 -3.234927530948e-01 2.903131003444e-01 -3.234927530948e-01 7.096868996556e-01 3.234927530948e-01
2.771500000000e-02 7.104439371091e-01 3.228333290081e-01 2.895560628909e-01 -3.228333290081e-01 2.895560628909e-01 -3.228333290081e-01 7.104439371091e-01 3.228333290081e-01
2.778875000000e-02 7.111965051205e-01 3.221746971650e-01 2.888034948795e-01 -3.221746971650e-01 2.888034948795e-01 -3.221746971650e-01 7.111965051205e-01 3.221746971650e-01
2.786250000000e-02 7.119446344930e-01 3.215168666703e-01 2.880553655070e-01 -3.215168666703e-01 2.880553655070e-01 -3.215168666703e-01 7.119446344930e-01 3.215168666703e-01
2.793625000000e-02 7.126883558075e-01 3.208598464216e-01 2.873116441925e-01 -3.208598464216e-01 2.873116441925e-01 -3.208598464216e-01 7.126883558075e-01 3.208598464216e-01
2.801000000000e-02 7.134276994236e-01 3.202036451135e-01 2.865723005764e-01 -3.202036451135e-01 2.865723005764e-01 -3.202036451135e-01 7.134276994236e-01 3.202036451135e-01
2.808375000000e-02 7.141626954813e-01 3.195482712402e-01 2.858373045187e-01 -3.195482712402e-01 2.858373045187e-01 -3.195482712402e-01 7.141626954813e-01 3.195482712402e-01
2.815750000000e-02 7.148933739019e-01 3.188937330992e-01 2.851066260981e-01 -3.188937330992e-01 2.851066260981e-01 -3.188937330992e-01 7.148933739019e-01 3.188937330992e-01
2.823125000000e-02 7.156197643896e-01 3.182400387943e-01 2.843802356104e-01 -3.182400387943e-01 2.843802356104e-01 -3.182400387943e-01 7.156197643896e-01 3.182400387943e-01
2.830500000000e-02 7.163418964325e-01 3.175871962388e-01 2.836581035675e-01 -3.175871962388e-01 2.836581035675e-01 -3.175871962388e-01 7.163418964325e-01 3.175871962388e-01
2.837875000000e-02 7.170597993040e-01 3.169352131585e-01 2.829402006960e-01 -3.169352131585e-01 2.829402006960e-01 -3.169352131585e-01 7.170597993040e-01 3.169352131585e-01
2.845250000000e-02 7.177735020642e-01 3.162840970950e-01 2.822264979358e-01 -3.162840970950e-01 2.822264979358e-01 -3.162840970950e-01 7.177735020642e-01 3.162840970950e-01
2.852625000000e-02 7.184830335611e-01 3.156338554086e-01 2.815169664389e-01 -3.156338554086e-01 2.815169664389e-01 -3.156338554086e-01 7.184830335611e-01 3.156338554086e-01
2.860000000000e-02 7.191884224317e-01 3.149844952809e-01 2.808115775683e-01 -3.149844952809e-01 2.808115775683e-01 -3.149844952809e-01 7.191884224317e-01 3.149844952809e-01
2.867375000000e-02 7.198896971035e-01 3.143360237186e-01 2.801103028965e-01 -3.143360237186e-01 2.801103028965e-01 -3.143360237186e-01 7.198896971035e-01 3.143360237186e-01
2.874750000000e-02 7.205868857961e-01 3.136884475553e-01 2.794131142039e-01 -3.136884475553e-01 2.794131142039e-01 -3.136884475553e-01 7.205868857961e-01 3.136884475553e-01
2.882125000000e-02 7.212800165216e-01 3.130417734552e-01 2.787199834784e-01 -3.130417734552e-01 2.787199834784e-01 -3.130417734552e-01 7.212800165216e-01 3.130417734552e-01
2.889500000000e-02 7.219691170870e-01 3.123960079154e-01 2.780308829130e-01 -3.123960079154e-01 2.780308829130e-01 -3.123960079154e-01 7.219691170870e-01 3.123960079154e-01
2.896875000000e-02 7.226542150947e-01 3.117511572689e-01 2.773457849053e-01 -3.117511572689e-01 2.773457849053e-01 -3.117511572689e-01 7.226542150947e-01 3.117511572689e-01
2.904250000000e-02 7.233353379440e-01 3.111072276871e-01 2.766646620560e-01 -3.111072276871e-01 2.766646620560e-01 -3.111072276871e-01 7.233353379440e-01 3.111072276871e-01
2.911625000000e-02 7.240125128326e-01 3.104642251828e-01 2.759874871674e-01 -3.104642251828e-01 2.759874871674e-01 -3.104642251828e-01 7.240125128326e-01 3.104642251828e-01
2.919000000000e-02 7.246857667577e-01 3.098221556124e-01 2.753142332423e-01 -3.098221556124e-01 2.753142332423e-01 -3.098221556124e-01 7.246857667577e-01 3.098221556124e-01
2.926375000000e-02 7.253551265173e-01 3.091810246786e-01 2.746448734827e-01 -3.091810246786e-01 2.746448734827e-01 -3.091810246786e-01 7.253551265173e-01 3.091810246786e-01
2.933750000000e-02 7.260206187117e-01 3.085408379334e-01 2.739793812883e-01 -3.085408379334e-01 2.739793812883e-01 -3.085408379334e-01 7.260206187117e-01 3.085408379334e-01
2.941125000000e-02 7.266822697446e-01 3.079016007798e-01 2.733177302554e-01 -3.079016007798e-01 2.733177302554e-01 -3.079016007798e-01 7.266822697446e-01 3.079016007798e-01
2.948500000000e-02 7.273401058243e-01 3.072633184751e-01 2.726598941757e-01 -3.072633184751e-01 2.726598941757e-01 -3.072633184751e-01 7.273401058243e-01 3.072633184751e-01
2.955875000000e-02 7.279941529652e-01 3.066259961327e-01 2.720058470348e-01 -3.066259961327e-01 2.720058470348e-01 -3.066259961327e-01 7.279941529652e-01 3.066259961327e-01
2.963250000000e-02 7.286444369892e-01 3.059896387247e-01 2.713555630108e-01 -3.059896387247e-01 2.713555630108e-01 -3.059896387247e-01 7.286444369892e-01 3.059896387247e-01
2.970625000000e-02 7.292909835265e-01 3.053542510845e-01 2.707090164735e-01 -3.053542510845e-01 2.707090164735e-01 -3.053542510845e-01 7.292909835265e-01 3.053542510845e-01
2.978000000000e-02 7.299338180174e-01 3.047198379088e-01 2.700661819826e-01 -3.047198379088e-01 2.700661819826e-01 -3.047198379088e-01 7.299338180174e-01 3.047198379088e-01
2.985375000000e-02 7.305729657135e-01 3.040864037598e-01 2.694270342865e-01 -3.040864037598e-01 2.694270342865e-01 -3.040864037598e-01 7.305729657135e-01 3.040864037598e-01
2.992750000000e-02 7.312084516785e-01 3.034539530681e-01 2.687915483215e-01 -3.034539530681e-01 2.687915483215e-01 -3.034539530681e-01 7.312084516785e-01 3.034539530681e-01
3.000125000000e-02 7.318403007902e-01 3.028224901339e-01 2.681596992098e-01 -3.028224901339e-01 2.681596992098e-01 -3.028224901339e-01 7.318403007902e-01 3.028224901339e-01
3.007500000000e-02 7.324685377412e-01 3.021920191303e-01 2.675314622588e-01 -3.021920191303e-01 2.675314622588e-01 -3.021920191303e-01 7.324685377412e-01 3.021920191303e-01
3.014875000000e-02 7.330931870404e-01 3.015625441044e-01 2.669068129596e-01 -3.015625441044e-01 2.669068129596e-01 -3.015625441044e-01 7.330931870404e-01 3.015625441044e-01
3.022250000000e-02 7.337142730144e-01 3.009340689802e-01 2.662857269856e-01 -3.009340689802e-01 2.662857269856e-01 -3.009340689802e-01 7.337142730144e-01 3.009340689802e-01
3.029625000000e-02 7.343318198085e-01 3.003065975604e-01 2.656681801915e-01 -3.003065975604e-01 2.656681801915e-01 -3.003065975604e-01 7.343318198085e-01 3.003065975604e-01
3.037000000000e-02 7.349458513881e-01 2.996801335282e-01 2.650541486119e-01 -2.996801335282e-01 2.650541486119e-01 -2.996801335282e-01 7.349458513881e-01 2.996801335282e-01
3.044375000000e-02 7.355563915400e-01 2.990546804498e-01 2.644436084600e-01 -2.990546804498e-01 2.644436084600e-01 -2.990546804498e-01 7.355563915400e-01 2.990546804498e-01
3.051750000000e-02 7.361634638735e-01 2.984302417760e-01 2.638365361265e-01 -2.984302417760e-01 2.638365361265e-01 -2.984302417760e-01 7.361634638735e-01 2.984302417760e-01
3.059125000000e-02 7.367670918218e-01 2.978068208443e-01 2.632329081782e-01 -2.978068208443e-01 2.632329081782e-01 -2.978068208443e-01 7.367670918218e-01 2.978068208443e-01
3.066500000000e-02 7.373672986432e-01 2.971844208810e-01 2.626327013568e-01 -2.971844208810e-01 2.626327013568e-01 -2.971844208810e-01 7.373672986432e-01 2.971844208810e-01
3.073875000000e-02 7.379641074222e-01 2.965630450027e-01 2.620358925778e-01 -2.965630450027e-01 2.620358925778e-01 -2.965630450027e-01 7.379641074222e-01 2.965630450027e-01
3.081250000000e-02 7.385575410711e-01 2.959426962185e-01 2.614424589289e-01 -2.959426962185e-01 2.614424589289e-01 -2.959426962185e-01 7.385575410711e-01 2.959426962185e-01
3.088625000000e-02 7.391476223308e-01 2.953233774318e-01 2.608523776692e-01 -2.953233774318e-01 2.608523776692e-01 -2.953233774318e-01 7.391476223308e-01 2.953233774318e-01
3.096000000000e-02 7.397343737722e-01 2.947050914418e-01 2.602656262278e-01 -2.947050914418e-01 2.602656262278e-01 -2.947050914418e-01 7.397343737722e-01 2.947050914418e-01
3.103375000000e-02 7.403178177976e-01 2.940878409458e-01 2.596821822024e-01 -2.940878409458e-01 2.596821822024e-01 -2.940878409458e-01 7.403178177976e-01 2.940878409458e-01
3.110750000000e-02 7.408979766417e-01 2.934716285406e-01 2.591020233583e-01 -2.934716285406e-01 2.591020233583e-01 -2.934716285406e-01 7.408979766417e-01 2.934716285406e-01
3.118125000000e-02 7.414748723727e-01 2.928564567242e-01 2.585251276273e-01 -2.928564567242e-01 2.585251276273e-01 -2.928564567242e-01 7.414748723727e-01 2.928564567242e-01
3.125500000000e-02 7.420485268939e-01 2.922423278977e-01 2.579514731061e-01 -2.922423278977e-01 2.579514731061e-01 -2.922423278977e-01 7.420485268939e-01 2.922423278977e-01
3.132875000000e-02 7.426189619446e-01 2.916292443668e-01 2.573810380554e-01 -2.916292443668e-01 2.573810380554e-01 -2.916292443668e-01 7.426189619446e-01 2.916292443668e-01
3.140250000000e-02 7.431861991013e-01 2.910172083437e-01 2.568138008987e-01 -2.910172083437e-01 2.568138008987e-01 -2.910172083437e-01 7.431861991013e-01 2.910172083437e-01
3.147625000000e-02 7.437502597791e-01 2.904062219484e-01 2.562497402209e-01 -2.904062219484e-01 2.562497402209e-01 -2.904062219484e-01 7.437502597791e-01 2.904062219484e-01
3.155000000000e-02 7.443111652325e-01 2.897962872104e-01 2.556888347675e-01 -2.897962872104e-01 2.556888347675e-01 -2.897962872104e-01 7.443111652325e-01 2.897962872104e-01
3.162375000000e-02 7.448689365571e-01 2.891874060706e-01 2.551310634429e-01 -2.891874060706e-01 2.551310634429e-01 -2.891874060706e-01 7.448689365571e-01 2.891874060706e-01
3.169750000000e-02 7.454235946902e-01 2.885795803822e-01 2.545764053098e-01 -2.885795803822e-01 2.545764053098e-01 -2.885795803822e-01 7.454235946902e-01 2.885795803822e-01
3.177125000000e-02 7.459751604126e-01 2.879728119130e-01 2.540248395874e-01 -2.879728119130e-01 2.540248395874e-01 -2.879728119130e-01 7.459751604126e-01 2.879728119130e-01
3.184500000000e-02 7.465236543491e-01 2.873671023460e-01 2.534763456509e-01 -2.873671023460e-01 2.534763456509e-01 -2.873671023460e-01 7.465236543491e-01 2.873671023460e-01
3.191875000000e-02 7.470690969703e-01 2.867624532819e-01 2.529309030297e-01 -2.867624532819e-01 2.529309030297e-01 -2.867624532819e-01 7.470690969703e-01 2.867624532819e-01
3.199250000000e-02 7.476115085930e-01 2.861588662397e-01 2.523884914070e-01 -2.861588662397e-01 2.523884914070e-01 -2.861588662397e-01 7.476115085930e-01 2.861588662397e-01
3.206625000000e-02 7.481509093822e-01 2.855563426585e-01 2.518490906178e-01 -2.855563426585e-01 2.518490906178e-01 -2.855563426585e-01 7.481509093822e-01 2.855563426585e-01
3.214000000000e-02 7.486873193515e-01 2.849548838989e-01 2.513126806485e-01 -2.849548838989e-01 2.513126806485e-01 -2.849548838989e-01 7.486873193515e-01 2.849548838989e-01
3.221375000000e-02 7.492207583647e-01 2.843544912444e-01 2.507792416353e-01 -2.843544912444e-01 2.507792416353e-01 -2.843544912444e-01 7.492207583647e-01 2.843544912444e-01
3.228750000000e-02 7.497512461367e-01 2.837551659028e-01 2.502487538633e-01 -2.837551659028e-01 2.502487538633e-01 -2.837551659028e-01 7.497512461367e-01 2.837551659028e-01
3.236125000000e-02 7.502788022347e-01 2.831569090071e-01 2.497211977653e-01 -2.831569090071e-01 2.497211977653e-01 -2.831569090071e-01 7.502788022347e-01 2.831569090071e-01
3.243500000000e-02 7.508034460792e-01 2.825597216177e-01 2.491965539208e-01 -2.825597216177e-01 2.491965539208e-01 -2.825597216177e-01 7.508034460792e-01 2.825597216177e-01
3.250875000000e-02 7.513251969453e-01 2.819636047227e-01 2.486748030547e-01 -2.819636047227e-01 2.486748030547e-01 -2.819636047227e-01 7.513251969453e-01 2.819636047227e-01
3.258250000000e-02 7.518440739637e-01 2.813685592401e-01 2.481559260363e-01 -2.813685592401e-01 2.481559260363e-01 -2.813685592401e-01 7.518440739637e-01 2.813685592401e-01
3.265625000000e-02 7.523600961218e-01 2.807745860183e-01 2.476399038782e-01 -2.807745860183e-01 2.476399038782e-01 -2.807745860183e-01 7.523600961218e-01 2.807745860183e-01
3.273000000000e-02 7.528732822646e-01 2.801816858378e-01 2.471267177354e-01 -2.801816858378e-01 2.471267177354e-01 -2.801816858378e-01 7.528732822646e-01 2.801816858378e-01
3.280375000000e-02 7.533836510962e-01 2.795898594125e-01 2.466163489038e-01 -2.795898594125e-01 2.466163489038e-01 -2.795898594125e-01 7.533836510962e-01 2.795898594125e-01
3.287750000000e-02 7.538912211805e-01 2.789991073903e-01 2.461087788195e-01 -2.789991073903e-01 2.461087788195e-01 -2.789991073903e-01 7.538912211805e-01 2.789991073903e-01
3.295125000000e-02 7.543960109423e-01 2.784094303550e-01 2.456039890577e-01 -2.784094303550e-01 2.456039890577e-01 -2.784094303550e-01 7.543960109423e-01 2.784094303550e-01
3.302500000000e-02 7.548980386688e-01 2.778208288270e-01 2.451019613312e-01 -2.778208288270e-01 2.451019613312e-01 -2.778208288270e-01 7.548980386688e-01 2.778208288270e-01
3.309875000000e-02 7.553973225099e-01 2.772333032647e-01 2.446026774901e-01 -2.772333032647e-01 2.446026774901e-01 -2.772333032647e-01 7.553973225099e-01 2.772333032647e-01
3.317250000000e-02 7.558938804800e-01 2.766468540655e-01 2.441061195200e-01 -2.766468540655e-01 2.441061195200e-01 -2.766468540655e-01 7.558938804800e-01 2.766468540655e-01
3.324625000000e-02 7.563877304585e-01 2.760614815668e-01 2.436122695415e-01 -2.760614815668e-01 2.436122695415e-01 -2.760614815668e-01 7.563877304585e-01 2.760614815668e-01
3.332000000000e-02 7.568788901910e-01 2.754771860476e-01 2.431211098090e-01 -2.754771860476e-01 2.431211098090e-01 -2.754771860476e-01 7.568788901910e-01 2.754771860476e-01
3.339375000000e-02 7.573673772905e-01 2.748939677287e-01 2.426326227095e-01 -2.748939677287e-01 2.426326227095e-01 -2.748939677287e-01 7.573673772905e-01 2.748939677287e-01
3.346750000000e-02 7.578532092384e-01 2.743118267748e-01 2.421467907616e-01 -2.743118267748e-01 2.421467907616e-01 -2.743118267748e-01 7.578532092384e-01 2.743118267748e-01
3.354125000000e-02 7.583364033851e-01 2.737307632946e-01 2.416635966149e-01 -2.737307632946e-01 2.416635966149e-01 -2.737307632946e-01 7.583364033851e-01 2.737307632946e-01
3.361500000000e-02 7.588169769516e-01 2.731507773426e-01 2.411830230484e-01 -2.731507773426e-01 2.411830230484e-01 -2.731507773426e-01 7.588169769516e-01 2.731507773426e-01
3.368875000000e-02 7.592949470300e-01 2.725718689193e-01 2.407050529700e-01 -2.725718689193e-01 2.407050529700e-01 -2.725718689193e-01 7.592949470300e-01 2.725718689193e-01
3.376250000000e-02 7.597703305847e-01 2.719940379731e-01 2.402296694153e-01 -2.719940379731e-01 2.402296694153e-01 -2.719940379731e-01 7.597703305847e-01 2.719940379731e-01
3.383625000000e-02 7.602431444537e-01 2.714172844007e-01 2.397568555463e-01 -2.714172844007e-01 2.397568555463e-01 -2.714172844007e-01 7.602431444537e-01 2.714172844007e-01
3.391000000000e-02 7.607134053490e-01 2.708416080480e-01 2.392865946510e-01 -2.708416080480e-01 2.392865946510e-01 -2.708416080480e-01 7.607134053490e-01 2.708416080480e-01
3.398375000000e-02 7.611811298580e-01 2.702670087114e-01 2.388188701420e-01 -2.702670087114e-01 2.388188701420e-01 -2.702670087114e-01 7.611811298580e-01 2.702670087114e-01
3.405750000000e-02 7.616463344441e-01 2.696934861387e-01 2.383536655559e-01 -2.696934861387e-01 2.383536655559e-01 -2.696934861387e-01 7.616463344441e-01 2.696934861387e-01
3.413125000000e-02 7.621090354483e-01 2.691210400296e-01 2.378909645517e-01 -2.691210400296e-01 2.378909645517e-01 -2.691210400296e-01 7.621090354483e-01 2.691210400296e-01
3.420500000000e-02 7.625692490893e-01 2.685496700372e-01 2.374307509107e-01 -2.685496700372e-01 2.374307509107e-01 -2.685496700372e-01 7.625692490893e-01 2.685496700372e-01
3.427875000000e-02 7.630269914652e-01 2.679793757683e-01 2.369730085348e-01 -2.679793757683e-01 2.369730085348e-01 -2.679793757683e-01 7.630269914652e-01 2.679793757683e-01
3.435250000000e-02 7.634822785541e-01 2.674101567848e-01 2.365177214459e-01 -2.674101567848e-01 2.365177214459e-01 -2.674101567848e-01 7.634822785541e-01 2.674101567848e-01
3.442625000000e-02 7.639351262149e-01 2.668420126041e-01 2.360648737851e-01 -2.668420126041e-01 2.360648737851e-01 -2.668420126041e-01 7.639351262149e-01 2.668420126041e-01
3.450000000000e-02 7.643855501887e-01 2.662749427005e-01 2.356144498113e-01 -2.662749427005e-01 2.356144498113e-01 -2.662749427005e-01 7.643855501887e-01 2.662749427005e-01
3.457375000000e-02 7.648335660992e-01 2.657089465054e-01 2.351664339008e-01 -2.657089465054e-01 2.351664339008e-01 -2.657089465054e-01 7.648335660992e-01 2.657089465054e-01
3.464750000000e-02 7.652791894539e-01 2.651440234086e-01 2.347208105461e-01 -2.651440234086e-01 2.347208105461e-01 -2.651440234086e-01 7.652791894539e-01 2.651440234086e-01
3.472125000000e-02 7.657224356449e-01 2.645801727588e-01 2.342775643551e-01 -2.645801727588e-01 2.342775643551e-01 -2.645801727588e-01 7.657224356449e-01 2.645801727588e-01
3.479500000000e-02 7.661633199502e-01 2.640173938647e-01 2.338366800498e-01 -2.640173938647e-01 2.338366800498e-01 -2.640173938647e-01 7.661633199502e-01 2.640173938647e-01
3.486875000000e-02 7.666018575337e-01 2.634556859954e-01 2.333981424663e-01 -2.634556859954e-01 2.333981424663e-01 -2.634556859954e-01 7.666018575337e-01 2.634556859954e-01
3.494250000000e-02 7.670380634472e-01 2.628950483817e-01 2.329619365528e-01 -2.628950483817e-01 2.329619365528e-01 -2.628950483817e-01 7.670380634472e-01 2.628950483817e-01
3.501625000000e-02 7.674719526304e-01 2.623354802163e-01 2.325280473696e-01 -2.623354802163e-01 2.325280473696e-01 -2.623354802163e-01 7.674719526304e-01 2.623354802163e-01
3.509000000000e-02 7.679035399122e-01 2.617769806548e-01 2.320964600878e-01 -2.617769806548e-01 2.320964600878e-01 -2.617769806548e-01 7.679035399122e-01 2.617769806548e-01
3.516375000000e-02 7.683328400116e-01 2.612195488166e-01 2.316671599884e-01 -2.612195488166e-01 2.316671599884e-01 -2.612195488166e-01 7.683328400116e-01 2.612195488166e-01
3.523750000000e-02 7.687598675383e-01 2.606631837852e-01 2.312401324617e-01 -2.606631837852e-01 2.312401324617e-01 -2.606631837852e-01 7.687598675383e-01 2.606631837852e-01
3.531125000000e-02 7.691846369938e-01 2.601078846094e-01 2.308153630062e-01 -2.601078846094e-01 2.308153630062e-01 -2.601078846094e-01 7.691846369938e-01 2.601078846094e-01
3.538500000000e-02 7.696071627722e-01 2.595536503036e-01 2.303928372278e-01 -2.595536503036e-01 2.303928372278e-01 -2.595536503036e-01 7.696071627722e-01 2.595536503036e-01
3.545875000000e-02 7.700274591609e-01 2.590004798487e-01 2.299725408391e-01 -2.590004798487e-01 2.299725408391e-01 -2.590004798487e-01 7.700274591609e-01 2.590004798487e-01
3.553250000000e-02 7.704455403417e-01 2.584483721927e-01 2.295544596583e-01 -2.584483721927e-01 2.295544596583e-01 -2.584483721927e-01 7.704455403417e-01 2.584483721927e-01
3.560625000000e-02 7.708614203914e-01 2.578973262514e-01 2.291385796086e-01 -2.578973262514e-01 2.291385796086e-01 -2.578973262514e-01 7.708614203914e-01 2.578973262514e-01
3.568000000000e-02 7.712751132828e-01 2.573473409092e-01 2.287248867172e-01 -2.573473409092e-01 2.287248867172e-01 -2.573473409092e-01 7.712751132828e-01 2.573473409092e-01
3.575375000000e-02 7.716866328853e-01 2.567984150193e-01 2.283133671147e-01 -2.567984150193e-01 2.283133671147e-01 -2.567984150193e-01 7.716866328853e-01 2.567984150193e-01
3.582750000000e-02 7.720959929660e-01 2.562505474048e-01 2.279040070340e-01 -2.562505474048e-01 2.279040070340e-01 -2.562505474048e-01 7.720959929660e-01 2.562505474048e-01
3.590125000000e-02 7.725032071904e-01 2.557037368592e-01 2.274967928096e-01 -2.557037368592e-01 2.274967928096e-01 -2.557037368592e-01 7.725032071904e-01 2.557037368592e-01
3.597500000000e-02 7.729082891230e-01 2.551579821468e-01 2.270917108770e-01 -2.551579821468e-01 2.270917108770e-01 -2.551579821468e-01 7.729082891230e-01 2.551579821468e-01
3.604875000000e-02 7.733112522284e-01 2.546132820037e-01 2.266887477716e-01 -2.546132820037e-01 2.266887477716e-01 -2.546132820037e-01 7.733112522284e-01 2.546132820037e-01
3.612250000000e-02 7.737121098720e-01 2.540696351379e-01 2.262878901280e-01 -2.540696351379e-01 2.262878901280e-01 -2.540696351379e-01 7.737121098720e-01 2.540696351379e-01
3.619625000000e-02 7.741108753207e-01 2.535270402304e-01 2.258891246793e-01 -2.535270402304e-01 2.258891246793e-01 -2.535270402304e-01 7.741108753207e-01 2.535270402304e-01
3.627000000000e-02 7.745075617436e-01 2.529854959353e-01 2.254924382564e-01 -2.529854959353e-01 2.254924382564e-01 -2.529854959353e-01 7.745075617436e-01 2.529854959353e-01
3.634375000000e-02 7.749021822132e-01 2.524450008808e-01 2.250978177868e-01 -2.524450008808e-01 2.250978177868e-01 -2.524450008808e-01 7.749021822132e-01 2.524450008808e-01
3.641750000000e-02 7.752947497056e-01 2.519055536694e-01 2.247052502944e-01 -2.519055536694e-01 2.247052502944e-01 -2.519055536694e-01 7.752947497056e-01 2.519055536694e-01
3.649125000000e-02 7.756852771016e-01 2.513671528787e-01 2.243147228984e-01 -2.513671528787e-01 2.243147228984e-01 -2.513671528787e-01 7.756852771016e-01 2.513671528787e-01
3.656500000000e-02 7.760737771876e-01 2.508297970617e-01 2.239262228124e-01 -2.508297970617e-01 2.239262228124e-01 -2.508297970617e-01 7.760737771876e-01 2.508297970617e-01
3.663875000000e-02 7.764602626558e-01 2.502934847478e-01 2.235397373442e-01 -2.502934847478e-01 2.235397373442e-01 -2.502934847478e-01 7.764602626558e-01 2.502934847478e-01
3.671250000000e-02 7.768447461056e-01 2.497582144425e-01 2.231552538944e-01 -2.497582144425e-01 2.231552538944e-01 -2.497582144425e-01 7.768447461056e-01 2.497582144425e-01
3.678625000000e-02 7.772272400438e-01 2.492239846289e-01 2.227727599562e-01 -2.492239846289e-01 2.227727599562e-01 -2.492239846289e-01 7.772272400438e-01 2.492239846289e-01
3.686000000000e-02 7.776077568857e-01 2.486907937674e-01 2.223922431143e-01 -2.486907937674e-01 2.223922431143e-01 -2.486907937674e-01 7.776077568857e-01 2.486907937674e-01
3.693375000000e-02 7.779863089556e-01 2.481586402966e-01 2.220136910444e-01 -2.481586402966e-01 2.220136910444e-01 -2.481586402966e-01 7.779863089556e-01 2.481586402966e-01
3.700750000000e-02 7.783629084878e-01 2.476275226336e-01 2.216370915122e-01 -2.476275226336e-01 2.216370915122e-01 -2.476275226336e-01 7.783629084878e-01 2.476275226336e-01
3.708125000000e-02 7.787375676268e-01 2.470974391749e-01 2.212624323732e-01 -2.470974391749e-01 2.212624323732e-01 -2.470974391749e-01 7.787375676268e-01 2.470974391749e-01
3.715500000000e-02 7.791102984286e-01 2.465683882962e-01 2.208897015714e-01 -2.465683882962e-01 2.208897015714e-01 -2.465683882962e-01 7.791102984286e-01 2.465683882962e-01
3.722875000000e-02 7.794811128611e-01 2.460403683534e-01 2.205188871389e-01 -2.460403683534e-01 2.205188871389e-01 -2.460403683534e-01 7.794811128611e-01 2.460403683534e-01
3.730250000000e-02 7.798500228047e-01 2.455133776829e-01 2.201499771953e-01 -2.455133776829e-01 2.201499771953e-01 -2.455133776829e-01 7.798500228047e-01 2.455133776829e-01
3.737625000000e-02 7.802170400533e-01 2.449874146018e-01 2.197829599467e-01 -2.449874146018e-01 2.197829599467e-01 -2.449874146018e-01 7.802170400533e-01 2.449874146018e-01
3.745000000000e-02 7.805821763148e-01 2.444624774090e-01 2.194178236852e-01 -2.444624774090e-01 2.194178236852e-01 -2.444624774090e-01 7.805821763148e-01 2.444624774090e-01
3.752375000000e-02 7.809454432117e-01 2.439385643847e-01 2.190545567883e-01 -2.439385643847e-01 2.190545567883e-01 -2.439385643847e-01 7.809454432117e-01 2.439385643847e-01
3.759750000000e-02 7.813068522820e-01 2.434156737918e-01 2.186931477180e-01 -2.434156737918e-01 2.186931477180e-01 -2.434156737918e-01 7.813068522820e-01 2.434156737918e-01
3.767125000000e-02 7.816664149797e-01 2.428938038755e-01 2.183335850203e-01 -2.428938038755e-01 2.183335850203e-01 -2.428938038755e-01 7.816664149797e-01 2.428938038755e-01
3.774500000000e-02 7.820241426755e-01 2.423729528644e-01 2.179758573245e-01 -2.423729528644e-01 2.179758573245e-01 -2.423729528644e-01 7.820241426755e-01 2.423729528644e-01
3.781875000000e-02 7.823800466577e-01 2.418531189703e-01 2.176199533423e-01 -2.418531189703e-01 2.176199533423e-01 -2.418531189703e-01 7.823800466577e-01 2.418531189703e-01
3.789250000000e-02 7.827341381323e-01 2.413343003890e-01 2.172658618677e-01 -2.413343003890e-01 2.172658618677e-01 -2.413343003890e-01 7.827341381323e-01 2.413343003890e-01
3.796625000000e-02 7.830864282242e-01 2.408164953007e-01 2.169135717758e-01 -2.408164953007e-01 2.169135717758e-01 -2.408164953007e-01 7.830864282242e-01 2.408164953007e-01
3.804000000000e-02 7.834369279777e-01 2.402997018702e-01 2.165630720223e-01 -2.402997018702e-01 2.165630720223e-01 -2.402997018702e-01 7.834369279777e-01 2.402997018702e-01
3.811375000000e-02 7.837856483569e-01 2.397839182471e-01 2.162143516431e-01 -2.397839182471e-01 2.162143516431e-01 -2.397839182471e-01 7.837856483569e-01 2.397839182471e-01
3.818750000000e-02 7.841326002467e-01 2.392691425668e-01 2.158673997533e-01 -2.392691425668e-01 2.158673997533e-01 -2.392691425668e-01 7.841326002467e-01 2.392691425668e-01
3.826125000000e-02 7.844777944531e-01 2.387553729503e-01 2.155222055469e-01 -2.387553729503e-01 2.155222055469e-01 -2.387553729503e-01 7.844777944531e-01 2.387553729503e-01
3.833500000000e-02 7.848212417041e-01 2.382426075048e-01 2.151787582959e-01 -2.382426075048e-01 2.151787582959e-01 -2.382426075048e-01 7.848212417041e-01 2.382426075048e-01
3.840875000000e-02 7.851629526500e-01 2.377308443241e-01 2.148370473500e-01 -2.377308443241e-01 2.148370473500e-01 -2.377308443241e-01 7.851629526500e-01 2.377308443241e-01
3.848250000000e-02 7.855029378645e-01 2.372200814887e-01 2.144970621355e-01 -2.372200814887e-01 2.144970621355e-01 -2.372200814887e-01 7.855029378645e-01 2.372200814887e-01
3.855625000000e-02 7.858412078449e-01 2.367103170664e-01 2.141587921551e-01 -2.367103170664e-01 2.141587921551e-01 -2.367103170664e-01 7.858412078449e-01 2.367103170664e-01
3.863000000000e-02 7.861777730126e-01 2.362015491126e-01 2.138222269874e-01 -2.362015491126e-01 2.138222269874e-01 -2.362015491126e-01 7.861777730126e-01 2.362015491126e-01
3.870375000000e-02 7.865126437142e-01 2.356937756706e-01 2.134873562858e-01 -2.356937756706e-01 2.134873562858e-01 -2.356937756706e-01 7.865126437142e-01 2.356937756706e-01
3.877750000000e-02 7.868458302218e-01 2.351869947719e-01 2.131541697782e-01 -2.351869947719e-01 2.131541697782e-01 -2.351869947719e-01 7.868458302218e-01 2.351869947719e-01
3.885125000000e-02 7.871773427335e-01 2.346812044364e-01 2.128226572665e-01 -2.346812044364e-01 2.128226572665e-01 -2.346812044364e-01 7.871773427335e-01 2.346812044364e-01
3.892500000000e-02 7.875071913743e-01 2.341764026731e-01 2.124928086257e-01 -2.341764026731e-01 2.124928086257e-01 -2.341764026731e-01 7.875071913743e-01 2.341764026731e-01
3.899875000000e-02 7.878353861962e-01 2.336725874799e-01 2.121646138038e-01 -2.336725874799e-01 2.121646138038e-01 -2.336725874799e-01 7.878353861962e-01 2.336725874799e-01
3.907250000000e-02 7.881619371792e-01 2.331697568446e-01 2.118380628208e-01 -2.331697568446e-01 2.118380628208e-01 -2.331697568446e-01 7.881619371792e-01 2.331697568446e-01
3.914625000000e-02 7.884868542319e-01 2.326679087443e-01 2.115131457681e-01 -2.326679087443e-01 2.115131457681e-01 -2.326679087443e-01 7.884868542319e-01 2.326679087443e-01
3.922000000000e-02 7.888101471916e-01 2.321670411464e-01 2.111898528084e-01 -2.321670411464e-01 2.111898528084e-01 -2.321670411464e-01 7.888101471916e-01 2.321670411464e-01
3.929375000000e-02 7.891318258253e-01 2.316671520089e-01 2.108681741747e-01 -2.316671520089e-01 2.108681741747e-01 -2.316671520089e-01 7.891318258253e-01 2.316671520089e-01
3.936750000000e-02 7.894518998302e-01 2.311682392800e-01 2.105481001698e-01 -2.311682392800e-01 2.105481001698e-01 -2.311682392800e-01 7.894518998302e-01 2.311682392800e-01
3.944125000000e-02 7.897703788341e-01 2.306703008992e-01 2.102296211659e-01 -2.306703008992e-01 2.102296211659e-01 -2.306703008992e-01 7.897703788341e-01 2.306703008992e-01
3.951500000000e-02 7.900872723959e-01 2.301733347971e-01 2.099127276041e-01 -2.301733347971e-01 2.099127276041e-01 -2.301733347971e-01 7.900872723959e-01 2.301733347971e-01
3.958875000000e-02 7.904025900066e-01 2.296773388957e-01 2.095974099934e-01 -2.296773388957e-01 2.095974099934e-01 -2.296773388957e-01 7.904025900066e-01 2.296773388957e-01
3.966250000000e-02 7.907163410892e-01 2.291823111090e-01 2.092836589108e-01 -2.291823111090e-01 2.092836589108e-01 -2.291823111090e-01 7.907163410892e-01 2.291823111090e-01
3.973625000000e-02 7.910285349996e-01 2.286882493429e-01 2.089714650004e-01 -2.286882493429e-01 2.089714650004e-01 -2.286882493429e-01 7.910285349996e-01 2.286882493429e-01
3.981000000000e-02 7.913391810271e-01 2.281951514954e-01 2.086608189729e-01 -2.281951514954e-01 2.086608189729e-01 -2.281951514954e-01 7.913391810271e-01 2.281951514954e-01
3.988375000000e-02 7.916482883951e-01 2.277030154573e-01 2.083517116049e-01 -2.277030154573e-01 2.083517116049e-01 -2.277030154573e-01 7.916482883951e-01 2.277030154573e-01
3.995750000000e-02 7.919558662610e-01 2.272118391122e-01 2.080441337389e-01 -2.272118391122e-01 2.080441337389e-01 -2.272118391122e-01 7.919558662610e-01 2.272118391122e-01
4.003125000000e-02 7.922619237177e-01 2.267216203365e-01 2.077380762823e-01 -2.267216203365e-01 2.077380762823e-01 -2.267216203365e-01 7.922619237177e-01 2.267216203365e-01
4.010500000000e-02 7.925664697930e-01 2.262323570002e-01 2.074335302070e-01 -2.262323570002e-01 2.074335302070e-01 -2.262323570002e-01 7.925664697930e-01 2.262323570002e-01
4.017875000000e-02 7.928695134511e-01 2.257440469664e-01 2.071304865489e-01 -2.257440469664e-01 2.071304865489e-01 -2.257440469664e-01 7.928695134511e-01 2.257440469664e-01
4.025250000000e-02 7.931710635923e-01 2.252566880924e-01 2.068289364077e-01 -2.252566880924e-01 2.068289364077e-01 -2.252566880924e-01 7.931710635923e-01 2.252566880924e-01
4.032625000000e-02 7.934711290543e-01 2.247702782292e-01 2.065288709457e-01 -2.247702782292e-01 2.065288709457e-01 -2.247702782292e-01 7.934711290543e-01 2.247702782292e-01
4.040000000000e-02 7.937697186120e-01 2.242848152221e-01 2.062302813880e-01 -2.242848152221e-01 2.062302813880e-01 -2.242848152221e-01 7.937697186120e-01 2.242848152221e-01
4.047375000000e-02 7.940668409781e-01 2.238002969109e-01 2.059331590219e-01 -2.238002969109e-01 2.059331590219e-01 -2.238002969109e-01 7.940668409781e-01 2.238002969109e-01
4.054750000000e-02 7.943625048043e-01 2.233167211298e-01 2.056374951957e-01 -2.233167211298e-01 2.056374951957e-01 -2.233167211298e-01 7.943625048043e-01 2.233167211298e-01
4.062125000000e-02 7.946567186806e-01 2.228340857082e-01 2.053432813194e-01 -2.228340857082e-01 2.053432813194e-01 -2.228340857082e-01 7.946567186806e-01 2.228340857082e-01
4.069500000000e-02 7.949494911370e-01 2.223523884703e-01 2.050505088630e-01 -2.223523884703e-01 2.050505088630e-01 -2.223523884703e-01 7.949494911370e-01 2.223523884703e-01
4.076875000000e-02 7.952408306430e-01 2.218716272358e-01 2.047591693570e-01 -2.218716272358e-01 2.047591693570e-01 -2.218716272358e-01 7.952408306430e-01 2.218716272358e-01
4.084250000000e-02 7.955307456086e-01 2.213917998196e-01 2.044692543914e-01 -2.213917998196e-01 2.044692543914e-01 -2.213917998196e-01 7.955307456086e-01 2.213917998196e-01
4.091625000000e-02 7.958192443847e-01 2.209129040327e-01 2.041807556153e-01 -2.209129040327e-01 2.041807556153e-01 -2.209129040327e-01 7.958192443847e-01 2.209129040327e-01
4.099000000000e-02 7.961063352634e-01 2.204349376816e-01 2.038936647366e-01 -2.204349376816e-01 2.038936647366e-01 -2.204349376816e-01 7.961063352634e-01 2.204349376816e-01
4.106375000000e-02 7.963920264787e-01 2.199578985690e-01 2.036079735213e-01 -2.199578985690e-01 2.036079735213e-01 -2.199578985690e-01 7.963920264787e-01 2.199578985690e-01
4.113750000000e-02 7.966763262067e-01 2.194817844940e-01 2.033236737933e-01 -2.194817844940e-01 2.033236737933e-01 -2.194817844940e-01 7.966763262067e-01 2.194817844940e-01
4.121125000000e-02 7.969592425663e-01 2.190065932520e-01 2.030407574337e-01 -2.190065932520e-01 2.030407574337e-01 -2.190065932520e-01 7.969592425663e-01 2.190065932520e-01
4.128500000000e-02 7.972407836194e-01 2.185323226351e-01 2.027592163806e-01 -2.185323226351e-01 2.027592163806e-01 -2.185323226351e-01 7.972407836194e-01 2.185323226351e-01
4.135875000000e-02 7.975209573715e-01 2.180589704322e-01 2.024790426285e-01 -2.180589704322e-01 2.024790426285e-01 -2.180589704322e-01 7.975209573715e-01 2.180589704322e-01
4.143250000000e-02 7.977997717723e-01 2.175865344291e-01 2.022002282277e-01 -2.175865344291e-01 2.022002282277e-01 -2.175865344291e-01 7.977997717723e-01 2.175865344291e-01
4.150625000000e-02 7.980772347158e-01 2.171150124090e-01 2.019227652842e-01 -2.171150124090e-01 2.019227652842e-01 -2.171150124090e-01 7.980772347158e-01 2.171150124090e-01
4.158000000000e-02 7.983533540408e-01 2.166444021522e-01 2.016466459592e-01 -2.166444021522e-01 2.016466459592e-01 -2.166444021522e-01 7.983533540408e-01 2.166444021522e-01
4.165375000000e-02 7.986281375317e-01 2.161747014367e-01 2.013718624683e-01 -2.161747014367e-01 2.013718624683e-01 -2.161747014367e-01 7.986281375317e-01 2.161747014367e-01
4.172750000000e-02 7.989015929184e-01 2.157059080380e-01 2.010984070816e-01 -2.157059080380e-01 2.010984070816e-01 -2.157059080380e-01 7.989015929184e-01 2.157059080380e-01
4.180125000000e-02 7.991737278772e-01 2.152380197295e-01 2.008262721228e-01 -2.152380197295e-01 2.008262721228e-01 -2.152380197295e-01 7.991737278772e-01 2.152380197295e-01
4.187500000000e-02 7.994445500307e-01 2.147710342826e-01 2.005554499693e-01 -2.147710342826e-01 2.005554499693e-01 -2.147710342826e-01 7.994445500307e-01 2.147710342826e-01
4.194875000000e-02 7.997140669489e-01 2.143049494669e-01 2.002859330511e-01 -2.143049494669e-01 2.002859330511e-01 -2.143049494669e-01 7.997140669489e-01 2.143049494669e-01
4.202250000000e-02 7.999822861488e-01 2.138397630502e-01 2.000177138512e-01 -2.138397630502e-01 2.000177138512e-01 -2.138397630502e-01 7.999822861488e-01 2.138397630502e-01
4.209625000000e-02 8.002492150958e-01 2.133754727988e-01 1.997507849042e-01 -2.133754727988e-01 1.997507849042e-01 -2.133754727988e-01 8.002492150958e-01 2.133754727988e-01
4.217000000000e-02 8.005148612030e-01 2.129120764776e-01 1.994851387970e-01 -2.129120764776e-01 1.994851387970e-01 -2.129120764776e-01 8.005148612030e-01 2.129120764776e-01
4.224375000000e-02 8.007792318324e-01 2.124495718503e-01 1.992207681676e-01 -2.124495718503e-01 1.992207681676e-01 -2.124495718503e-01 8.007792318324e-01 2.124495718503e-01
4.231750000000e-02 8.010423342952e-01 2.119879566794e-01 1.989576657048e-01 -2.119879566794e-01 1.989576657048e-01 -2.119879566794e-01 8.010423342952e-01 2.119879566794e-01
4.239125000000e-02 8.013041758517e-01 2.115272287264e-01 1.986958241483e-01 -2.115272287264e-01 1.986958241483e-01 -2.115272287264e-01 8.013041758517e-01 2.115272287264e-01
4.246500000000e-02 8.015647637124e-01 2.110673857520e-01 1.984352362876e-01 -2.110673857520e-01 1.984352362876e-01 -2.110673857520e-01 8.015647637124e-01 2.110673857520e-01
4.253875000000e-02 8.018241050377e-01 2.106084255164e-01 1.981758949623e-01 -2.106084255164e-01 1.981758949623e-01 -2.106084255164e-01 8.018241050377e-01 2.106084255164e-01
4.261250000000e-02 8.020822069391e-01 2.101503457788e-01 1.979177930609e-01 -2.101503457788e-01 1.979177930609e-01 -2.101503457788e-01 8.020822069391e-01 2.101503457788e-01
4.268625000000e-02 8.023390764785e-01 2.096931442984e-01 1.976609235215e-01 -2.096931442984e-01 1.976609235215e-01 -2.096931442984e-01 8.023390764785e-01 2.096931442984e-01
4.276000000000e-02 8.025947206697e-01 2.092368188339e-01 1.974052793303e-01 -2.092368188339e-01 1.974052793303e-01 -2.092368188339e-01 8.025947206697e-01 2.092368188339e-01
4.283375000000e-02 8.028491464780e-01 2.087813671437e-01 1.971508535220e-01 -2.087813671437e-01 1.971508535220e-01 -2.087813671437e-01 8.028491464780e-01 2.087813671437e-01
4.290750000000e-02 8.031023608210e-01 2.083267869863e-01 1.968976391790e-01 -2.083267869863e-01 1.968976391790e-01 -2.083267869863e-01 8.031023608210e-01 2.083267869863e-01
4.298125000000e-02 8.033543705686e-01 2.078730761202e-01 1.966456294314e-01 -2.078730761202e-01 1.966456294314e-01 -2.078730761202e-01 8.033543705686e-01 2.078730761202e-01
4.305500000000e-02 8.036051825438e-01 2.074202323042e-01 1.963948174562e-01 -2.074202323042e-01 1.963948174562e-01 -2.074202323042e-01 8.036051825438e-01 2.074202323042e-01
4.312875000000e-02 8.038548035228e-01 2.069682532972e-01 1.961451964772e-01 -2.069682532972e-01 1.961451964772e-01 -2.069682532972e-01 8.038548035228e-01 2.069682532972e-01
4.320250000000e-02 8.041032402353e-01 2.065171368585e-01 1.958967597647e-01 -2.065171368585e-01 1.958967597647e-01 -2.065171368585e-01 8.041032402353e-01 2.065171368585e-01
4.327625000000e-02 8.043504993650e-01 2.060668807482e-01 1.956495006350e-01 -2.060668807482e-01 1.956495006350e-01 -2.060668807482e-01 8.043504993650e-01 2.060668807482e-01
4.335000000000e-02 8.045965875501e-01 2.056174827267e-01 1.954034124499e-01 -2.056174827267e-01 1.954034124499e-01 -2.056174827267e-01 8.045965875501e-01 2.056174827267e-01
4.342375000000e-02 8.048415113832e-01 2.051689405553e-01 1.951584886168e-01 -2.051689405553e-01 1.951584886168e-01 -2.051689405553e-01 8.048415113832e-01 2.051689405553e-01
4.349750000000e-02 8.050852774122e-01 2.047212519962e-01 1.949147225878e-01 -2.047212519962e-01 1.949147225878e-01 -2.047212519962e-01 8.050852774122e-01 2.047212519962e-01
4.357125000000e-02 8.053278921402e-01 2.042744148123e-01 1.946721078598e-01 -2.042744148123e-01 1.946721078598e-01 -2.042744148123e-01 8.053278921402e-01 2.042744148123e-01
4.364500000000e-02 8.055693620261e-01 2.038284267679e-01 1.944306379739e-01 -2.038284267679e-01 1.944306379739e-01 -2.038284267679e-01 8.055693620261e-01 2.038284267679e-01
4.371875000000e-02 8.058096934848e-01 2.033832856282e-01 1.941903065152e-01 -2.033832856282e-01 1.941903065152e-01 -2.033832856282e-01 8.058096934848e-01 2.033832856282e-01
4.379250000000e-02 8.060488928877e-01 2.029389891597e-01 1.939511071123e-01 -2.029389891597e-01 1.939511071123e-01 -2.029389891597e-01 8.060488928877e-01 2.029389891597e-01
4.386625000000e-02 8.062869665628e-01 2.024955351302e-01 1.937130334372e-01 -2.024955351302e-01 1.937130334372e-01 -2.024955351302e-01 8.062869665628e-01 2.024955351302e-01
4.394000000000e-02 8.065239207953e-01 2.020529213090e-01 1.934760792047e-01 -2.020529213090e-01 1.934760792047e-01 -2.020529213090e-01 8.065239207953e-01 2.020529213090e-01
4.401375000000e-02 8.067597618278e-01 2.016111454671e-01 1.932402381722e-01 -2.016111454671e-01 1.932402381722e-01 -2.016111454671e-01 8.067597618278e-01 2.016111454671e-01
4.408750000000e-02 8.069944958605e-01 2.011702053767e-01 1.930055041395e-01 -2.011702053767e-01 1.930055041395e-01 -2.011702053767e-01 8.069944958605e-01 2.011702053767e-01
4.416125000000e-02 8.072281290518e-01 2.007300988120e-01 1.927718709482e-01 -2.007300988120e-01 1.927718709482e-01 -2.007300988120e-01 8.072281290518e-01 2.007300988120e-01
4.423500000000e-02 8.074606675184e-01 2.002908235490e-01 1.925393324816e-01 -2.002908235490e-01 1.925393324816e-01 -2.002908235490e-01 8.074606675184e-01 2.002908235490e-01
4.430875000000e-02 8.076921173357e-01 1.998523773655e-01 1.923078826643e-01 -1.998523773655e-01 1.923078826643e-01 -1.998523773655e-01 8.076921173357e-01 1.998523773655e-01
4.438250000000e-02 8.079224845382e-01 1.994147580413e-01 1.920775154618e-01 -1.994147580413e-01 1.920775154618e-01 -1.994147580413e-01 8.079224845382e-01 1.994147580413e-01
4.445625000000e-02 8.081517751196e-01 1.989779633581e-01 1.918482248804e-01 -1.989779633581e-01 1.918482248804e-01 -1.989779633581e-01 8.081517751196e-01 1.989779633581e-01
4.453000000000e-02 8.083799950332e-01 1.985419911001e-01 1.916200049668e-01 -1.985419911001e-01 1.916200049668e-01 -1.985419911001e-01 8.083799950332e-01 1.985419911001e-01
4.460375000000e-02 8.086071501925e-01 1.981068390533e-01 1.913928498075e-01 -1.981068390533e-01 1.913928498075e-01 -1.981068390533e-01 8.086071501925e-01 1.981068390533e-01
4.467750000000e-02 8.088332464711e-01 1.976725050061e-01 1.911667535289e-01 -1.976725050061e-01 1.911667535289e-01 -1.976725050061e-01 8.088332464711e-01 1.976725050061e-01
4.475125000000e-02 8.090582897031e-01 1.972389867495e-01 1.909417102969e-01 -1.972389867495e-01 1.909417102969e-01 -1.972389867495e-01 8.090582897031e-01 1.972389867495e-01
4.482500000000e-02 8.092822856835e-01 1.968062820765e-01 1.907177143165e-01 -1.968062820765e-01 1.907177143165e-01 -1.968062820765e-01 8.092822856835e-01 1.968062820765e-01
4.489875000000e-02 8.095052401685e-01 1.963743887830e-01 1.904947598315e-01 -1.963743887830e-01 1.904947598315e-01 -1.963743887830e-01 8.095052401685e-01 1.963743887830e-01
4.497250000000e-02 8.097271588757e-01 1.959433046673e-01 1.902728411243e-01 -1.959433046673e-01 1.902728411243e-01 -1.959433046673e-01 8.097271588757e-01 1.959433046673e-01
4.504625000000e-02 8.099480474846e-01 1.955130275303e-01 1.900519525154e-01 -1.955130275303e-01 1.900519525154e-01 -1.955130275303e-01 8.099480474846e-01 1.955130275303e-01
4.512000000000e-02 8.101679116366e-01 1.950835551758e-01 1.898320883634e-01 -1.950835551758e-01 1.898320883634e-01 -1.950835551758e-01 8.101679116366e-01 1.950835551758e-01
4.519375000000e-02 8.103867569355e-01 1.946548854101e-01 1.896132430645e-01 -1.946548854101e-01 1.896132430645e-01 -1.946548854101e-01 8.103867569355e-01 1.946548854101e-01
4.526750000000e-02 8.106045889475e-01 1.942270160426e-01 1.893954110525e-01 -1.942270160426e-01 1.893954110525e-01 -1.942270160426e-01 8.106045889475e-01 1.942270160426e-01
4.534125000000e-02 8.108214132021e-01 1.937999448855e-01 1.891785867979e-01 -1.937999448855e-01 1.891785867979e-01 -1.937999448855e-01 8.108214132021e-01 1.937999448855e-01
4.541500000000e-02 8.110372351916e-01 1.933736697540e-01 1.889627648084e-01 -1.933736697540e-01 1.889627648084e-01 -1.933736697540e-01 8.110372351916e-01 1.933736697540e-01
4.548875000000e-02 8.112520603720e-01 1.929481884664e-01 1.887479396280e-01 -1.929481884664e-01 1.887479396280e-01 -1.929481884664e-01 8.112520603720e-01 1.929481884664e-01
4.556250000000e-02 8.114658941631e-01 1.925234988438e-01 1.885341058369e-01 -1.925234988438e-01 1.885341058369e-01 -1.925234988438e-01 8.114658941631e-01 1.925234988438e-01
4.563625000000e-02 8.116787419484e-01 1.920995987108e-01 1.883212580516e-01 -1.920995987108e-01 1.883212580516e-01 -1.920995987108e-01 8.116787419484e-01 1.920995987108e-01
4.571000000000e-02 8.118906090759e-01 1.916764858952e-01 1.881093909241e-01 -1.916764858952e-01 1.881093909241e-01 -1.916764858952e-01 8.118906090759e-01 1.916764858952e-01
4.578375000000e-02 8.121015008583e-01 1.912541582277e-01 1.878984991417e-01 -1.912541582277e-01 1.878984991417e-01 -1.912541582277e-01 8.121015008583e-01 1.912541582277e-01
4.585750000000e-02 8.123114225728e-01 1.908326135428e-01 1.876885774272e-01 -1.908326135428e-01 1.876885774272e-01 -1.908326135428e-01 8.123114225728e-01 1.908326135428e-01
4.593125000000e-02 8.125203794620e-01 1.904118496780e-01 1.874796205380e-01 -1.904118496780e-01 1.874796205380e-01 -1.904118496780e-01 8.125203794620e-01 1.904118496780e-01
4.600500000000e-02 8.127283767336e-01 1.899918644745e-01 1.872716232664e-01 -1.899918644745e-01 1.872716232664e-01 -1.899918644745e-01 8.127283767336e-01 1.899918644745e-01
4.607875000000e-02 8.129354195611e-01 1.895726557767e-01 1.870645804389e-01 -1.895726557767e-01 1.870645804389e-01 -1.895726557767e-01 8.129354195611e-01 1.895726557767e-01
4.615250000000e-02 8.131415130839e-01 1.891542214328e-01 1.868584869161e-01 -1.891542214328e-01 1.868584869161e-01 -1.891542214328e-01 8.131415130839e-01 1.891542214328e-01
4.622625000000e-02 8.133466624073e-01 1.887365592945e-01 1.866533375927e-01 -1.887365592945e-01 1.866533375927e-01 -1.887365592945e-01 8.133466624073e-01 1.887365592945e-01
4.630000000000e-02 8.135508726032e-01 1.883196672170e-01 1.864491273968e-01 -1.883196672170e-01 1.864491273968e-01 -1.883196672170e-01 8.135508726032e-01 1.883196672170e-01
4.637375000000e-02 8.137541487102e-01 1.879035430593e-01 1.862458512898e-01 -1.879035430593e-01 1.862458512898e-01 -1.879035430593e-01 8.137541487102e-01 1.879035430593e-01
4.644750000000e-02 8.139564957336e-01 1.874881846841e-01 1.860435042664e-01 -1.874881846841e-01 1.860435042664e-01 -1.874881846841e-01 8.139564957336e-01 1.874881846841e-01
4.652125000000e-02 8.141579186460e-01 1.870735899579e-01 1.858420813540e-01 -1.870735899579e-01 1.858420813540e-01 -1.870735899579e-01 8.141579186460e-01 1.870735899579e-01
4.659500000000e-02 8.143584223872e-01 1.866597567510e-01 1.856415776128e-01 -1.866597567510e-01 1.856415776128e-01 -1.866597567510e-01 8.143584223872e-01 1.866597567510e-01
4.666875000000e-02 8.145580118649e-01 1.862466829374e-01 1.854419881351e-01 -1.862466829374e-01 1.854419881351e-01 -1.862466829374e-01 8.145580118649e-01 1.862466829374e-01
4.674250000000e-02 8.147566919545e-01 1.858343663951e-01 1.852433080455e-01 -1.858343663951e-01 1.852433080455e-01 -1.858343663951e-01 8.147566919545e-01 1.858343663951e-01
4.681625000000e-02 8.149544674996e-01 1.854228050062e-01 1.850455325004e-01 -1.854228050062e-01 1.850455325004e-01 -1.854228050062e-01 8.149544674996e-01 1.854228050062e-01
4.689000000000e-02 8.151513433121e-01 1.850119966566e-01 1.848486566879e-01 -1.850119966566e-01 1.848486566879e-01 -1.850119966566e-01 8.151513433121e-01 1.850119966566e-01
4.696375000000e-02 8.153473241725e-01 1.846019392361e-01 1.846526758275e-01 -1.846019392361e-01 1.846526758275e-01 -1.846019392361e-01 8.153473241725e-01 1.846019392361e-01
4.703750000000e-02 8.155424148302e-01 1.841926306389e-01 1.844575851698e-01 -1.841926306389e-01 1.844575851698e-01 -1.841926306389e-01 8.155424148302e-01 1.841926306389e-01
4.711125000000e-02 8.157366200036e-01 1.837840687629e-01 1.842633799964e-01 -1.837840687629e-01 1.842633799964e-01 -1.837840687629e-01 8.157366200036e-01 1.837840687629e-01
4.718500000000e-02 8.159299443804e-01 1.833762515104e-01 1.840700556196e-01 -1.833762515104e-01 1.840700556196e-01 -1.833762515104e-01 8.159299443804e-01 1.833762515104e-01
4.725875000000e-02 8.161223926179e-01 1.829691767878e-01 1.838776073821e-01 -1.829691767878e-01 1.838776073821e-01 -1.829691767878e-01 8.161223926179e-01 1.829691767878e-01
4.733250000000e-02 8.163139693430e-01 1.825628425056e-01 1.836860306570e-01 -1.825628425056e-01 1.836860306570e-01 -1.825628425056e-01 8.163139693430e-01 1.825628425056e-01
4.740625000000e-02 8.165046791528e-01 1.821572465786e-01 1.834953208472e-01 -1.821572465786e-01 1.834953208472e-01 -1.821572465786e-01 8.165046791528e-01 1.821572465786e-01
4.748000000000e-02 8.166945266144e-01 1.817523869259e-01 1.833054733856e-01 -1.817523869259e-01 1.833054733856e-01 -1.817523869259e-01 8.166945266144e-01 1.817523869259e-01
4.755375000000e-02 8.168835162654e-01 1.813482614709e-01 1.831164837346e-01 -1.813482614709e-01 1.831164837346e-01 -1.813482614709e-01 8.168835162654e-01 1.813482614709e-01
4.762750000000e-02 8.170716526140e-01 1.809448681411e-01 1.829283473860e-01 -1.809448681411e-01 1.829283473860e-01 -1.809448681411e-01 8.170716526140e-01 1.809448681411e-01
4.770125000000e-02 8.172589401394e-01 1.805422048687e-01 1.827410598606e-01 -1.805422048687e-01 1.827410598606e-01 -1.805422048687e-01 8.172589401394e-01 1.805422048687e-01
4.777500000000e-02 8.174453832917e-01 1.801402695900e-01 1.825546167083e-01 -1.801402695900e-01 1.825546167083e-01 -1.801402695900e-01 8.174453832917e-01 1.801402695900e-01
4.784875000000e-02 8.176309864924e-01 1.797390602458e-01 1.823690135076e-01 -1.797390602458e-01 1.823690135076e-01 -1.797390602458e-01 8.176309864924e-01 1.797390602458e-01
4.792250000000e-02 8.178157541345e-01 1.793385747815e-01 1.821842458655e-01 -1.793385747815e-01 1.821842458655e-01 -1.793385747815e-01 8.178157541345e-01 1.793385747815e-01
4.799625000000e-02 8.179996905827e-01 1.789388111468e-01 1.820003094173e-01 -1.789388111468e-01 1.820003094173e-01 -1.789388111468e-01 8.179996905827e-01 1.789388111468e-01
4.807000000000e-02 8.181828001736e-01 1.785397672958e-01 1.818171998264e-01 -1.785397672958e-01 1.818171998264e-01 -1.785397672958e-01 8.181828001736e-01 1.785397672958e-01
4.814375000000e-02 8.183650872159e-01 1.781414411874e-01 1.816349127841e-01 -1.781414411874e-01 1.816349127841e-01 -1.781414411874e-01 8.183650872159e-01 1.781414411874e-01
4.821750000000e-02 8.185465559907e-01 1.777438307848e-01 1.814534440093e-01 -1.777438307848e-01 1.814534440093e-01 -1.777438307848e-01 8.185465559907e-01 1.777438307848e-01
4.829125000000e-02 8.187272107517e-01 1.773469340559e-01 1.812727892483e-01 -1.773469340559e-01 1.812727892483e-01 -1.773469340559e-01 8.187272107517e-01 1.773469340559e-01
4.836500000000e-02 8.189070557253e-01 1.769507489731e-01 1.810929442747e-01 -1.769507489731e-01 1.810929442747e-01 -1.769507489731e-01 8.189070557253e-01 1.769507489731e-01
4.843875000000e-02 8.190860951108e-01 1.765552735134e-01 1.809139048892e-01 -1.765552735134e-01 1.809139048892e-01 -1.765552735134e-01 8.190860951108e-01 1.765552735134e-01
4.851250000000e-02 8.192643330806e-01 1.761605056587e-01 1.807356669194e-01 -1.761605056587e-01 1.807356669194e-01 -1.761605056587e-01 8.192643330806e-01 1.761605056587e-01
4.858625000000e-02 8.194417737807e-01 1.757664433951e-01 1.805582262193e-01 -1.757664433951e-01 1.805582262193e-01 -1.757664433951e-01 8.194417737807e-01 1.757664433951e-01
4.866000000000e-02 8.196184213302e-01 1.753730847138e-01 1.803815786698e-01 -1.753730847138e-01 1.803815786698e-01 -1.753730847138e-01 8.196184213302e-01 1.753730847138e-01
4.873375000000e-02 8.197942798224e-01 1.749804276106e-01 1.802057201776e-01 -1.749804276106e-01 1.802057201776e-01 -1.749804276106e-01 8.197942798224e-01 1.749804276106e-01
4.880750000000e-02 8.199693533243e-01 1.745884700857e-01 1.800306466757e-01 -1.745884700857e-01 1.800306466757e-01 -1.745884700857e-01 8.199693533243e-01 1.745884700857e-01
4.888125000000e-02 8.201436458770e-01 1.741972101445e-01 1.798563541230e-01 -1.741972101445e-01 1.798563541230e-01 -1.741972101445e-01 8.201436458770e-01 1.741972101445e-01
4.895500000000e-02 8.203171614960e-01 1.738066457969e-01 1.796828385040e-01 -1.738066457969e-01 1.796828385040e-01 -1.738066457969e-01 8.203171614960e-01 1.738066457969e-01
4.902875000000e-02 8.204899041711e-01 1.734167750575e-01 1.795100958289e-01 -1.734167750575e-01 1.795100958289e-01 -1.734167750575e-01 8.204899041711e-01 1.734167750575e-01
4.910250000000e-02 8.206618778672e-01 1.730275959459e-01 1.793381221328e-01 -1.730275959459e-01 1.793381221328e-01 -1.730275959459e-01 8.206618778672e-01 1.730275959459e-01
4.917625000000e-02 8.208330865235e-01 1.726391064865e-01 1.791669134765e-01 -1.726391064865e-01 1.791669134765e-01 -1.726391064865e-01 8.208330865235e-01 1.726391064865e-01
4.925000000000e-02 8.210035340548e-01 1.722513047082e-01 1.789964659452e-01 -1.722513047082e-01 1.789964659452e-01 -1.722513047082e-01 8.210035340548e-01 1.722513047082e-01
4.932375000000e-02 8.211732243507e-01 1.718641886451e-01 1.788267756493e-01 -1.718641886451e-01 1.788267756493e-01 -1.718641886451e-01 8.211732243507e-01 1.718641886451e-01
4.939750000000e-02 8.213421612765e-01 1.714777563360e-01 1.786578387235e-01 -1.714777563360e-01 1.786578387235e-01 -1.714777563360e-01 8.213421612765e-01 1.714777563360e-01
4.947125000000e-02 8.215103486731e-01 1.710920058247e-01 1.784896513269e-01 -1.710920058247e-01 1.784896513269e-01 -1.710920058247e-01 8.215103486731e-01 1.710920058247e-01
4.954500000000e-02 8.216777903569e-01 1.707069351595e-01 1.783222096431e-01 -1.707069351595e-01 1.783222096431e-01 -1.707069351595e-01 8.216777903569e-01 1.707069351595e-01
4.961875000000e-02 8.218444901205e-01 1.703225423941e-01 1.781555098795e-01 -1.703225423941e-01 1.781555098795e-01 -1.703225423941e-01 8.218444901205e-01 1.703225423941e-01
4.969250000000e-02 8.220104517325e-01 1.699388255868e-01 1.779895482675e-01 -1.699388255868e-01 1.779895482675e-01 -1.699388255868e-01 8.220104517325e-01 1.699388255868e-01
4.976625000000e-02 8.221756789379e-01 1.695557828008e-01 1.778243210621e-01 -1.695557828008e-01 1.778243210621e-01 -1.695557828008e-01 8.221756789379e-01 1.695557828008e-01
4.984000000000e-02 8.223401754581e-01 1.691734121045e-01 1.776598245419e-01 -1.691734121045e-01 1.776598245419e-01 -1.691734121045e-01 8.223401754581e-01 1.691734121045e-01
4.991375000000e-02 8.225039449911e-01 1.687917115708e-01 1.774960550089e-01 -1.687917115708e-01 1.774960550089e-01 -1.687917115708e-01 8.225039449911e-01 1.687917115708e-01
4.998750000000e-02 8.226669912119e-01 1.684106792779e-01 1.773330087881e-01 -1.684106792779e-01 1.773330087881e-01 -1.684106792779e-01 8.226669912119e-01 1.684106792779e-01
5.006125000000e-02 8.228293177722e-01 1.680303133090e-01 1.771706822278e-01 -1.680303133090e-01 1.771706822278e-01 -1.680303133090e-01 8.228293177722e-01 1.680303133090e-01
5.013500000000e-02 8.229909283010e-01 1.676506117519e-01 1.770090716990e-01 -1.676506117519e-01 1.770090716990e-01 -1.676506117519e-01 8.229909283010e-01 1.676506117519e-01
5.020875000000e-02 8.231518264047e-01 1.672715726998e-01 1.768481735953e-01 -1.672715726998e-01 1.768481735953e-01 -1.672715726998e-01 8.231518264047e-01 1.672715726998e-01
5.028250000000e-02 8.233120156670e-01 1.668931942507e-01 1.766879843330e-01 -1.668931942507e-01 1.766879843330e-01 -1.668931942507e-01 8.233120156670e-01 1.668931942507e-01
5.035625000000e-02 8.234714996493e-01 1.665154745075e-01 1.765285003507e-01 -1.665154745075e-01 1.765285003507e-01 -1.665154745075e-01 8.234714996493e-01 1.665154745075e-01
5.043000000000e-02 8.236302818908e-01 1.661384115782e-01 1.763697181092e-01 -1.661384115782e-01 1.763697181092e-01 -1.661384115782e-01 8.236302818908e-01 1.661384115782e-01
5.050375000000e-02 8.237883659087e-01 1.657620035759e-01 1.762116340913e-01 -1.657620035759e-01 1.762116340913e-01 -1.657620035759e-01 8.237883659087e-01 1.657620035759e-01
5.057750000000e-02 8.239457551982e-01 1.653862486186e-01 1.760542448018e-01 -1.653862486186e-01 1.760542448018e-01 -1.653862486186e-01 8.239457551982e-01 1.653862486186e-01
5.065125000000e-02 8.241024532330e-01 1.650111448295e-01 1.758975467670e-01 -1.650111448295e-01 1.758975467670e-01 -1.650111448295e-01 8.241024532330e-01 1.650111448295e-01
5.072500000000e-02 8.242584634649e-01 1.646366903364e-01 1.757415365351e-01 -1.646366903364e-01 1.757415365351e-01 -1.646366903364e-01 8.242584634649e-01 1.646366903364e-01
5.079875000000e-02 8.244137893246e-01 1.642628832727e-01 1.755862106754e-01 -1.642628832727e-01 1.755862106754e-01 -1.642628832727e-01 8.244137893246e-01 1.642628832727e-01
5.087250000000e-02 8.245684342214e-01 1.638897217766e-01 1.754315657786e-01 -1.638897217766e-01 1.754315657786e-01 -1.638897217766e-01 8.245684342214e-01 1.638897217766e-01
5.094625000000e-02 8.247224015435e-01 1.635172039911e-01 1.752775984565e-01 -1.635172039911e-01 1.752775984565e-01 -1.635172039911e-01 8.247224015435e-01 1.635172039911e-01
5.102000000000e-02 8.248756946580e-01 1.631453280647e-01 1.751243053420e-01 -1.631453280647e-01 1.751243053420e-01 -1.631453280647e-01 8.248756946580e-01 1.631453280647e-01
5.109375000000e-02 8.250283169115e-01 1.627740921506e-01 1.749716830885e-01 -1.627740921506e-01 1.749716830885e-01 -1.627740921506e-01 8.250283169115e-01 1.627740921506e-01
5.116750000000e-02 8.251802716297e-01 1.624034944074e-01 1.748197283703e-01 -1.624034944074e-01 1.748197283703e-01 -1.624034944074e-01 8.251802716297e-01 1.624034944074e-01
5.124125000000e-02 8.253315621179e-01 1.620335329983e-01 1.746684378821e-01 -1.620335329983e-01 1.746684378821e-01 -1.620335329983e-01 8.253315621179e-01 1.620335329983e-01
5.131500000000e-02 8.254821916610e-01 1.616642060921e-01 1.745178083390e-01 -1.616642060921e-01 1.745178083390e-01 -1.616642060921e-01 8.254821916610e-01 1.616642060921e-01
5.138875000000e-02 8.256321635237e-01 1.612955118623e-01 1.743678364763e-01 -1.612955118623e-01 1.743678364763e-01 -1.612955118623e-01 8.256321635237e-01 1.612955118623e-01
5.146250000000e-02 8.257814809505e-01 1.609274484877e-01 1.742185190495e-01 -1.609274484877e-01 1.742185190495e-01 -1.609274484877e-01 8.257814809505e-01 1.609274484877e-01
5.153625000000e-02 8.259301471662e-01 1.605600141519e-01 1.740698528338e-01 -1.605600141519e-01 1.740698528338e-01 -1.605600141519e-01 8.259301471662e-01 1.605600141519e-01
5.161000000000e-02 8.260781653757e-01 1.601932070438e-01 1.739218346243e-01 -1.601932070438e-01 1.739218346243e-01 -1.601932070438e-01 8.260781653757e-01 1.601932070438e-01
5.168375000000e-02 8.262255387642e-01 1.598270253574e-01 1.737744612358e-01 -1.598270253574e-01 1.737744612358e-01 -1.598270253574e-01 8.262255387642e-01 1.598270253574e-01
5.175750000000e-02 8.263722704973e-01 1.594614672916e-01 1.736277295027e-01 -1.594614672916e-01 1.736277295027e-01 -1.594614672916e-01 8.263722704973e-01 1.594614672916e-01
5.183125000000e-02 8.265183637216e-01 1.590965310507e-01 1.734816362784e-01 -1.590965310507e-01 1.734816362784e-01 -1.590965310507e-01 8.265183637216e-01 1.590965310507e-01
5.190500000000e-02 8.266638215640e-01 1.587322148436e-01 1.733361784360e-01 -1.587322148436e-01 1.733361784360e-01 -1.587322148436e-01 8.266638215640e-01 1.587322148436e-01
5.197875000000e-02 8.268086471327e-01 1.583685168848e-01 1.731913528673e-01 -1.583685168848e-01 1.731913528673e-01 -1.583685168848e-01 8.268086471327e-01 1.583685168848e-01
5.205250000000e-02 8.269528435168e-01 1.580054353936e-01 1.730471564832e-01 -1.580054353936e-01 1.730471564832e-01 -1.580054353936e-01 8.269528435168e-01 1.580054353936e-01
5.212625000000e-02 8.270964137863e-01 1.576429685943e-01 1.729035862137e-01 -1.576429685943e-01 1.729035862137e-01 -1.576429685943e-01 8.270964137863e-01 1.576429685943e-01
5.220000000000e-02 8.272393609930e-01 1.572811147166e-01 1.727606390070e-01 -1.572811147166e-01 1.727606390070e-01 -1.572811147166e-01 8.272393609930e-01 1.572811147166e-01
5.227375000000e-02 8.273816881697e-01 1.569198719949e-01 1.726183118303e-01 -1.569198719949e-01 1.726183118303e-01 -1.569198719949e-01 8.273816881697e-01 1.569198719949e-01
5.234750000000e-02 8.275233983311e-01 1.565592386691e-01 1.724766016689e-01 -1.565592386691e-01 1.724766016689e-01 -1.565592386691e-01 8.275233983311e-01 1.565592386691e-01
5.242125000000e-02 8.276644944733e-01 1.561992129838e-01 1.723355055267e-01 -1.561992129838e-01 1.723355055267e-01 -1.561992129838e-01 8.276644944733e-01 1.561992129838e-01
5.249500000000e-02 8.278049795746e-01 1.558397931889e-01 1.721950204254e-01 -1.558397931889e-01 1.721950204254e-01 -1.558397931889e-01 8.278049795746e-01 1.558397931889e-01
5.256875000000e-02 8.279448565948e-01 1.554809775394e-01 1.720551434052e-01 -1.554809775394e-01 1.720551434052e-01 -1.554809775394e-01 8.279448565948e-01 1.554809775394e-01
5.264250000000e-02 8.280841284762e-01 1.551227642951e-01 1.719158715238e-01 -1.551227642951e-01 1.719158715238e-01 -1.551227642951e-01 8.280841284762e-01 1.551227642951e-01
5.271625000000e-02 8.282227981430e-01 1.547651517213e-01 1.717772018570e-01 -1.547651517213e-01 1.717772018570e-01 -1.547651517213e-01 8.282227981430e-01 1.547651517213e-01
5.279000000000e-02 8.283608685020e-01 1.544081380879e-01 1.716391314980e-01 -1.544081380879e-01 1.716391314980e-01 -1.544081380879e-01 8.283608685020e-01 1.544081380879e-01
5.286375000000e-02 8.284983424422e-01 1.540517216703e-01 1.715016575578e-01 -1.540517216703e-01 1.715016575578e-01 -1.540517216703e-01 8.284983424422e-01 1.540517216703e-01
5.293750000000e-02 8.286352228353e-01 1.536959007487e-01 1.713647771647e-01 -1.536959007487e-01 1.713647771647e-01 -1.536959007487e-01 8.286352228353e-01 1.536959007487e-01
5.301125000000e-02 8.287715125358e-01 1.533406736084e-01 1.712284874642e-01 -1.533406736084e-01 1.712284874642e-01 -1.533406736084e-01 8.287715125358e-01 1.533406736084e-01
5.308500000000e-02 8.289072143808e-01 1.529860385399e-01 1.710927856192e-01 -1.529860385399e-01 1.710927856192e-01 -1.529860385399e-01 8.289072143808e-01 1.529860385399e-01
5.315875000000e-02 8.290423311906e-01 1.526319938385e-01 1.709576688094e-01 -1.526319938385e-01 1.709576688094e-01 -1.526319938385e-01 8.290423311906e-01 1.526319938385e-01
5.323250000000e-02 8.291768657684e-01 1.522785378048e-01 1.708231342316e-01 -1.522785378048e-01 1.708231342316e-01 -1.522785378048e-01 8.291768657684e-01 1.522785378048e-01
5.330625000000e-02 8.293108209006e-01 1.519256687443e-01 1.706891790994e-01 -1.519256687443e-01 1.706891790994e-01 -1.519256687443e-01 8.293108209006e-01 1.519256687443e-01
5.338000000000e-02 8.294441993569e-01 1.515733849677e-01 1.705558006431e-01 -1.515733849677e-01 1.705558006431e-01 -1.515733849677e-01 8.294441993569e-01 1.515733849677e-01
5.345375000000e-02 8.295770038904e-01 1.512216847904e-01 1.704229961096e-01 -1.512216847904e-01 1.704229961096e-01 -1.512216847904e-01 8.295770038904e-01 1.512216847904e-01
5.352750000000e-02 8.297092372378e-01 1.508705665332e-01 1.702907627622e-01 -1.508705665332e-01 1.702907627622e-01 -1.508705665332e-01 8.297092372378e-01 1.508705665332e-01
5.360125000000e-02 8.298409021195e-01 1.505200285218e-01 1.701590978805e-01 -1.505200285218e-01 1.701590978805e-01 -1.505200285218e-01 8.298409021195e-01 1.505200285218e-01
5.367500000000e-02 8.299720012394e-01 1.501700690869e-01 1.700279987606e-01 -1.501700690869e-01 1.700279987606e-01 -1.501700690869e-01 8.299720012394e-01 1.501700690869e-01
5.374875000000e-02 8.301025372855e-01 1.498206865642e-01 1.698974627145e-01 -1.498206865642e-01 1.698974627145e-01 -1.498206865642e-01 8.301025372855e-01 1.498206865642e-01
5.382250000000e-02 8.302325129298e-01 1.494718792944e-01 1.697674870702e-01 -1.494718792944e-01 1.697674870702e-01 -1.494718792944e-01 8.302325129298e-01 1.494718792944e-01
5.389625000000e-02 8.303619308282e-01 1.491236456233e-01 1.696380691718e-01 -1.491236456233e-01 1.696380691718e-01 -1.491236456233e-01 8.303619308282e-01 1.491236456233e-01
5.397000000000e-02 8.304907936210e-01 1.487759839017e-01 1.695092063790e-01 -1.487759839017e-01 1.695092063790e-01 -1.487759839017e-01 8.304907936210e-01 1.487759839017e-01
5.404375000000e-02 8.306191039327e-01 1.484288924852e-01 1.693808960673e-01 -1.484288924852e-01 1.693808960673e-01 -1.484288924852e-01 8.306191039327e-01 1.484288924852e-01
5.411750000000e-02 8.307468643722e-01 1.480823697346e-01 1.692531356278e-01 -1.480823697346e-01 1.692531356278e-01 -1.480823697346e-01 8.307468643722e-01 1.480823697346e-01
5.419125000000e-02 8.308740775331e-01 1.477364140157e-01 1.691259224669e-01 -1.477364140157e-01 1.691259224669e-01 -1.477364140157e-01 8.308740775331e-01 1.477364140157e-01
5.426500000000e-02 8.310007459934e-01 1.473910236990e-01 1.689992540066e-01 -1.473910236990e-01 1.689992540066e-01 -1.473910236990e-01 8.310007459934e-01 1.473910236990e-01
5.433875000000e-02 8.311268723161e-01 1.470461971603e-01 1.688731276839e-01 -1.470461971603e-01 1.688731276839e-01 -1.470461971603e-01 8.311268723161e-01 1.470461971603e-01
5.441250000000e-02 8.312524590488e-01 1.467019327802e-01 1.687475409512e-01 -1.467019327802e-01 1.687475409512e-01 -1.467019327802e-01 8.312524590488e-01 1.467019327802e-01
5.448625000000e-02 8.313775087242e-01 1.463582289442e-01 1.686224912758e-01 -1.463582289442e-01 1.686224912758e-01 -1.463582289442e-01 8.313775087242e-01 1.463582289442e-01
5.456000000000e-02 8.315020238601e-01 1.460150840429e-01 1.684979761399e-01 -1.460150840429e-01 1.684979761399e-01 -1.460150840429e-01 8.315020238601e-01 1.460150840429e-01
5.463375000000e-02 8.316260069593e-01 1.456724964718e-01 1.683739930407e-01 -1.456724964718e-01 1.683739930407e-01 -1.456724964718e-01 8.316260069593e-01 1.456724964718e-01
5.470750000000e-02 8.317494605100e-01 1.453304646312e-01 1.682505394900e-01 -1.453304646312e-01 1.682505394900e-01 -1.453304646312e-01 8.317494605100e-01 1.453304646312e-01
5.478125000000e-02 8.318723869856e-01 1.449889869264e-01 1.681276130144e-01 -1.449889869264e-01 1.681276130144e-01 -1.449889869264e-01 8.318723869856e-01 1.449889869264e-01
5.485500000000e-02 8.319947888452e-01 1.446480617677e-01 1.680052111548e-01 -1.446480617677e-01 1.680052111548e-01 -1.446480617677e-01 8.319947888452e-01 1.446480617677e-01
5.492875000000e-02 8.321166685333e-01 1.443076875704e-01 1.678833314667e-01 -1.443076875704e-01 1.678833314667e-01 -1.443076875704e-01 8.321166685333e-01 1.443076875704e-01
5.500250000000e-02 8.322380284800e-01 1.439678627543e-01 1.677619715200e-01 -1.439678627543e-01 1.677619715200e-01 -1.439678627543e-01 8.322380284800e-01 1.439678627543e-01
5.507625000000e-02 8.323588711013e-01 1.436285857444e-01 1.676411288987e-01 -1.436285857444e-01 1.676411288987e-01 -1.436285857444e-01 8.323588711013e-01 1.436285857444e-01
5.515000000000e-02 8.324791987990e-01 1.432898549707e-01 1.675208012010e-01 -1.432898549707e-01 1.675208012010e-01 -1.432898549707e-01 8.324791987990e-01 1.432898549707e-01
5.522375000000e-02 8.325990139609e-01 1.429516688678e-01 1.674009860391e-01 -1.429516688678e-01 1.674009860391e-01 -1.429516688678e-01 8.325990139609e-01 1.429516688678e-01
5.529750000000e-02 8.327183189608e-01 1.426140258753e-01 1.672816810392e-01 -1.426140258753e-01 1.672816810392e-01 -1.426140258753e-01 8.327183189608e-01 1.426140258753e-01
5.537125000000e-02 8.328371161586e-01 1.422769244376e-01 1.671628838414e-01 -1.422769244376e-01 1.671628838414e-01 -1.422769244376e-01 8.328371161586e-01 1.422769244376e-01
5.544500000000e-02 8.329554079005e-01 1.419403630041e-01 1.670445920995e-01 -1.419403630041e-01 1.670445920995e-01 -1.419403630041e-01 8.329554079005e-01 1.419403630041e-01
5.551875000000e-02 8.330731965191e-01 1.416043400288e-01 1.669268034809e-01 -1.416043400288e-01 1.669268034809e-01 -1.416043400288e-01 8.330731965191e-01 1.416043400288e-01
5.559250000000e-02 8.331904843332e-01 1.412688539708e-01 1.668095156668e-01 -1.412688539708e-01 1.668095156668e-01 -1.412688539708e-01 8.331904843332e-01 1.412688539708e-01
5.566625000000e-02 8.333072736483e-01 1.409339032939e-01 1.666927263517e-01 -1.409339032939e-01 1.666927263517e-01 -1.409339032939e-01 8.333072736483e-01 1.409339032939e-01
5.574000000000e-02 8.334235667566e-01 1.405994864666e-01 1.665764332434e-01 -1.405994864666e-01 1.665764332434e-01 -1.405994864666e-01 8.334235667566e-01 1.405994864666e-01
5.581375000000e-02 8.335393659367e-01 1.402656019624e-01 1.664606340633e-01 -1.402656019624e-01 1.664606340633e-01 -1.402656019624e-01 8.335393659367e-01 1.402656019624e-01
5.588750000000e-02 8.336546734542e-01 1.399322482596e-01 1.663453265458e-01 -1.399322482596e-01 1.663453265458e-01 -1.399322482596e-01 8.336546734542e-01 1.399322482596e-01
5.596125000000e-02 8.337694915616e-01 1.395994238411e-01 1.662305084384e-01 -1.395994238411e-01 1.662305084384e-01 -1.395994238411e-01 8.337694915616e-01 1.395994238411e-01
5.603500000000e-02 8.338838224983e-01 1.392671271947e-01 1.661161775017e-01 -1.392671271947e-01 1.661161775017e-01 -1.392671271947e-01 8.338838224983e-01 1.392671271947e-01
5.610875000000e-02 8.339976684906e-01 1.389353568130e-01 1.660023315094e-01 -1.389353568130e-01 1.660023315094e-01 -1.389353568130e-01 8.339976684906e-01 1.389353568130e-01
5.618250000000e-02 8.341110317523e-01 1.386041111933e-01 1.658889682477e-01 -1.386041111933e-01 1.658889682477e-01 -1.386041111933e-01 8.341110317523e-01 1.386041111933e-01
5.625625000000e-02 8.342239144841e-01 1.382733888377e-01 1.657760855159e-01 -1.382733888377e-01 1.657760855159e-01 -1.382733888377e-01 8.342239144841e-01 1.382733888377e-01
5.633000000000e-02 8.343363188741e-01 1.379431882530e-01 1.656636811259e-01 -1.379431882530e-01 1.656636811259e-01 -1.379431882530e-01 8.343363188741e-01 1.379431882530e-01
5.640375000000e-02 8.344482470980e-01 1.376135079507e-01 1.655517529020e-01 -1.376135079507e-01 1.655517529020e-01 -1.376135079507e-01 8.344482470980e-01 1.376135079507e-01
5.647750000000e-02 8.345597013188e-01 1.372843464471e-01 1.654402986812e-01 -1.372843464471e-01 1.654402986812e-01 -1.372843464471e-01 8.345597013188e-01 1.372843464471e-01
5.655125000000e-02 8.346706836869e-01 1.369557022631e-01 1.653293163131e-01 -1.369557022631e-01 1.653293163131e-01 -1.369557022631e-01 8.346706836869e-01 1.369557022631e-01
5.662500000000e-02 8.347811963408e-01 1.366275739246e-01 1.652188036592e-01 -1.366275739246e-01 1.652188036592e-01 -1.366275739246e-01 8.347811963408e-01 1.366275739246e-01
5.669875000000e-02 8.348912414063e-01 1.362999599617e-01 1.651087585937e-01 -1.362999599617e-01 1.651087585937e-01 -1.362999599617e-01 8.348912414063e-01 1.362999599617e-01
5.677250000000e-02 8.350008209974e-01 1.359728589095e-01 1.649991790026e-01 -1.359728589095e-01 1.649991790026e-01 -1.359728589095e-01 8.350008209974e-01 1.359728589095e-01
5.684625000000e-02 8.351099372156e-01 1.356462693078e-01 1.648900627844e-01 -1.356462693078e-01 1.648900627844e-01 -1.356462693078e-01 8.351099372156e-01 1.356462693078e-01
5.692000000000e-02 8.352185921507e-01 1.353201897009e-01 1.647814078493e-01 -1.353201897009e-01 1.647814078493e-01 -1.353201897009e-01 8.352185921507e-01 1.353201897009e-01
5.699375000000e-02 8.353267878804e-01 1.349946186379e-01 1.646732121196e-01 -1.349946186379e-01 1.646732121196e-01 -1.349946186379e-01 8.353267878804e-01 1.349946186379e-01
5.706750000000e-02 8.354345264706e-01 1.346695546723e-01 1.645654735294e-01 -1.346695546723e-01 1.645654735294e-01 -1.346695546723e-01 8.354345264706e-01 1.346695546723e-01
5.714125000000e-02 8.355418099754e-01 1.343449963625e-01 1.644581900246e-01 -1.343449963625e-01 1.644581900246e-01 -1.343449963625e-01 8.355418099754e-01 1.343449963625e-01
5.721500000000e-02 8.356486404372e-01 1.340209422714e-01 1.643513595628e-01 -1.340209422714e-01 1.643513595628e-01 -1.340209422714e-01 8.356486404372e-01 1.340209422714e-01
5.728875000000e-02 8.357550198868e-01 1.336973909665e-01 1.642449801132e-01 -1.336973909665e-01 1.642449801132e-01 -1.336973909665e-01 8.357550198868e-01 1.336973909665e-01
5.736250000000e-02 8.358609503435e-01 1.333743410198e-01 1.641390496565e-01 -1.333743410198e-01 1.641390496565e-01 -1.333743410198e-01 8.358609503435e-01 1.333743410198e-01
5.743625000000e-02 8.359664338149e-01 1.330517910080e-01 1.640335661851e-01 -1.330517910080e-01 1.640335661851e-01 -1.330517910080e-01 8.359664338149e-01 1.330517910080e-01
5.751000000000e-02 8.360714722975e-01 1.327297395125e-01 1.639285277025e-01 -1.327297395125e-01 1.639285277025e-01 -1.327297395125e-01 8.360714722975e-01 1.327297395125e-01
5.758375000000e-02 8.361760677762e-01 1.324081851189e-01 1.638239322238e-01 -1.324081851189e-01 1.638239322238e-01 -1.324081851189e-01 8.361760677762e-01 1.324081851189e-01
5.765750000000e-02 8.362802222250e-01 1.320871264177e-01 1.637197777750e-01 -1.320871264177e-01 1.637197777750e-01 -1.320871264177e-01 8.362802222250e-01 1.320871264177e-01
5.773125000000e-02 8.363839376065e-01 1.317665620038e-01 1.636160623935e-01 -1.317665620038e-01 1.636160623935e-01 -1.317665620038e-01 8.363839376065e-01 1.317665620038e-01
5.780500000000e-02 8.364872158721e-01 1.314464904766e-01 1.635127841279e-01 -1.314464904766e-01 1.635127841279e-01 -1.314464904766e-01 8.364872158721e-01 1.314464904766e-01
5.787875000000e-02 8.365900589625e-01 1.311269104401e-01 1.634099410375e-01 -1.311269104401e-01 1.634099410375e-01 -1.311269104401e-01 8.365900589625e-01 1.311269104401e-01
5.795250000000e-02 8.366924688072e-01 1.308078205027e-01 1.633075311928e-01 -1.308078205027e-01 1.633075311928e-01 -1.308078205027e-01 8.366924688072e-01 1.308078205027e-01
5.802625000000e-02 8.367944473249e-01 1.304892192773e-01 1.632055526751e-01 -1.304892192773e-01 1.632055526751e-01 -1.304892192773e-01 8.367944473249e-01 1.304892192773e-01
5.810000000000e-02 8.368959964235e-01 1.301711053814e-01 1.631040035765e-01 -1.301711053814e-01 1.631040035765e-01 -1.301711053814e-01 8.368959964235e-01 1.301711053814e-01
5.817375000000e-02 8.369971180001e-01 1.298534774369e-01 1.630028819999e-01 -1.298534774369e-01 1.630028819999e-01 -1.298534774369e-01 8.369971180001e-01 1.298534774369e-01
5.824750000000e-02 8.370978139414e-01 1.295363340701e-01 1.629021860586e-01 -1.295363340701e-01 1.629021860586e-01 -1.295363340701e-01 8.370978139414e-01 1.295363340701e-01
5.832125000000e-02 8.371980861231e-01 1.292196739119e-01 1.628019138769e-01 -1.292196739119e-01 1.628019138769e-01 -1.292196739119e-01 8.371980861231e-01 1.292196739119e-01
5.839500000000e-02 8.372979364107e-01 1.289034955975e-01 1.627020635893e-01 -1.289034955975e-01 1.627020635893e-01 -1.289034955975e-01 8.372979364107e-01 1.289034955975e-01
5.846875000000e-02 8.373973666592e-01 1.285877977665e-01 1.626026333408e-01 -1.285877977665e-01 1.626026333408e-01 -1.285877977665e-01 8.373973666592e-01 1.285877977665e-01
5.854250000000e-02 8.374963787129e-01 1.282725790631e-01 1.625036212871e-01 -1.282725790631e-01 1.625036212871e-01 -1.282725790631e-01 8.374963787129e-01 1.282725790631e-01
5.861625000000e-02 8.375949744063e-01 1.279578381358e-01 1.624050255937e-01 -1.279578381358e-01 1.624050255937e-01 -1.279578381358e-01 8.375949744063e-01 1.279578381358e-01
5.869000000000e-02 8.376931555633e-01 1.276435736374e-01 1.623068444367e-01 -1.276435736374e-01 1.623068444367e-01 -1.276435736374e-01 8.376931555633e-01 1.276435736374e-01
5.876375000000e-02 8.377909239977e-01 1.273297842252e-01 1.622090760023e-01 -1.273297842252e-01 1.622090760023e-01 -1.273297842252e-01 8.377909239977e-01 1.273297842252e-01
5.883750000000e-02 8.378882815131e-01 1.270164685608e-01 1.621117184869e-01 -1.270164685608e-01 1.621117184869e-01 -1.270164685608e-01 8.378882815131e-01 1.270164685608e-01
5.891125000000e-02 8.379852299033e-01 1.267036253103e-01 1.620147700967e-01 -1.267036253103e-01 1.620147700967e-01 -1.267036253103e-01 8.379852299033e-01 1.267036253103e-01
5.898500000000e-02 8.380817709518e-01 1.263912531438e-01 1.619182290482e-01 -1.263912531438e-01 1.619182290482e-01 -1.263912531438e-01 8.380817709518e-01 1.263912531438e-01
5.905875000000e-02 8.381779064325e-01 1.260793507361e-01 1.618220935675e-01 -1.260793507361e-01 1.618220935675e-01 -1.260793507361e-01 8.381779064325e-01 1.260793507361e-01
5.913250000000e-02 8.382736381091e-01 1.257679167662e-01 1.617263618909e-01 -1.257679167662e-01 1.617263618909e-01 -1.257679167662e-01 8.382736381091e-01 1.257679167662e-01
5.920625000000e-02 8.383689677358e-01 1.254569499173e-01 1.616310322642e-01 -1.254569499173e-01 1.616310322642e-01 -1.254569499173e-01 8.383689677358e-01 1.254569499173e-01
5.928000000000e-02 8.384638970570e-01 1.251464488770e-01 1.615361029430e-01 -1.251464488770e-01 1.615361029430e-01 -1.251464488770e-01 8.384638970570e-01 1.251464488770e-01
5.935375000000e-02 8.385584278074e-01 1.248364123372e-01 1.614415721926e-01 -1.248364123372e-01 1.614415721926e-01 -1.248364123372e-01 8.385584278074e-01 1.248364123372e-01
5.942750000000e-02 8.386525617121e-01 1.245268389941e-01 1.613474382879e-01 -1.245268389941e-01 1.613474382879e-01 -1.245268389941e-01 8.386525617121e-01 1.245268389941e-01
5.950125000000e-02 8.387463004865e-01 1.242177275480e-01 1.612536995135e-01 -1.242177275480e-01 1.612536995135e-01 -1.242177275480e-01 8.387463004865e-01 1.242177275480e-01
5.957500000000e-02 8.388396458370e-01 1.239090767035e-01 1.611603541630e-01 -1.239090767035e-01 1.611603541630e-01 -1.239090767035e-01 8.388396458370e-01 1.239090767035e-01
5.964875000000e-02 8.389325994600e-01 1.236008851696e-01 1.610674005400e-01 -1.236008851696e-01 1.610674005400e-01 -1.236008851696e-01 8.389325994600e-01 1.236008851696e-01
5.972250000000e-02 8.390251630430e-01 1.232931516594e-01 1.609748369570e-01 -1.232931516594e-01 1.609748369570e-01 -1.232931516594e-01 8.390251630430e-01 1.232931516594e-01
5.979625000000e-02 8.391173382639e-01 1.229858748902e-01 1.608826617361e-01 -1.229858748902e-01 1.608826617361e-01 -1.229858748902e-01 8.391173382639e-01 1.229858748902e-01
5.987000000000e-02 8.392091267917e-01 1.226790535834e-01 1.607908732083e-01 -1.226790535834e-01 1.607908732083e-01 -1.226790535834e-01 8.392091267917e-01 1.226790535834e-01
5.994375000000e-02 8.393005302858e-01 1.223726864650e-01 1.606994697142e-01 -1.223726864650e-01 1.606994697142e-01 -1.223726864650e-01 8.393005302858e-01 1.223726864650e-01
6.001750000000e-02 8.393915503969e-01 1.220667722646e-01 1.606084496031e-01 -1.220667722646e-01 1.606084496031e-01 -1.220667722646e-01 8.393915503969e-01 1.220667722646e-01
6.009125000000e-02 8.394821887663e-01 1.217613097164e-01 1.605178112337e-01 -1.217613097164e-01 1.605178112337e-01 -1.217613097164e-01 8.394821887663e-01 1.217613097164e-01
6.016500000000e-02 8.395724470265e-01 1.214562975586e-01 1.604275529735e-01 -1.214562975586e-01 1.604275529735e-01 -1.214562975586e-01 8.395724470265e-01 1.214562975586e-01
6.023875000000e-02 8.396623268011e-01 1.211517345335e-01 1.603376731989e-01 -1.211517345335e-01 1.603376731989e-01 -1.211517345335e-01 8.396623268011e-01 1.211517345335e-01
6.031250000000e-02 8.397518297047e-01 1.208476193876e-01 1.602481702953e-01 -1.208476193876e-01 1.602481702953e-01 -1.208476193876e-01 8.397518297047e-01 1.208476193876e-01
6.038625000000e-02 8.398409573431e-01 1.205439508715e-01 1.601590426569e-01 -1.205439508715e-01 1.601590426569e-01 -1.205439508715e-01 8.398409573431e-01 1.205439508715e-01
6.046000000000e-02 8.399297113133e-01 1.202407277398e-01 1.600702886867e-01 -1.202407277398e-01 1.600702886867e-01 -1.202407277398e-01 8.399297113133e-01 1.202407277398e-01
6.053375000000e-02 8.400180932037e-01 1.199379487515e-01 1.599819067963e-01 -1.199379487515e-01 1.599819067963e-01 -1.199379487515e-01 8.400180932037e-01 1.199379487515e-01
6.060750000000e-02 8.401061045940e-01 1.196356126693e-01 1.598938954060e-01 -1.196356126693e-01 1.598938954060e-01 -1.196356126693e-01 8.401061045940e-01 1.196356126693e-01
6.068125000000e-02 8.401937470552e-01 1.193337182601e-01 1.598062529448e-01 -1.193337182601e-01 1.598062529448e-01 -1.193337182601e-01 8.401937470552e-01 1.193337182601e-01
6.075500000000e-02 8.402810221499e-01 1.190322642951e-01 1.597189778501e-01 -1.190322642951e-01 1.597189778501e-01 -1.190322642951e-01 8.402810221499e-01 1.190322642951e-01
6.082875000000e-02 8.403679314321e-01 1.187312495491e-01 1.596320685679e-01 -1.187312495491e-01 1.596320685679e-01 -1.187312495491e-01 8.403679314321e-01 1.187312495491e-01
6.090250000000e-02 8.404544764474e-01 1.184306728013e-01 1.595455235526e-01 -1.184306728013e-01 1.595455235526e-01 -1.184306728013e-01 8.404544764474e-01 1.184306728013e-01
6.097625000000e-02 8.405406587330e-01 1.181305328348e-01 1.594593412670e-01 -1.181305328348e-01 1.594593412670e-01 -1.181305328348e-01 8.405406587330e-01 1.181305328348e-01
6.105000000000e-02 8.406264798178e-01 1.178308284367e-01 1.593735201822e-01 -1.178308284367e-01 1.593735201822e-01 -1.178308284367e-01 8.406264798178e-01 1.178308284367e-01
6.112375000000e-02 8.407119412225e-01 1.175315583979e-01 1.592880587775e-01 -1.175315583979e-01 1.592880587775e-01 -1.175315583979e-01 8.407119412225e-01 1.175315583979e-01
6.119750000000e-02 8.407970444594e-01 1.172327215137e-01 1.592029555406e-01 -1.172327215137e-01 1.592029555406e-01 -1.172327215137e-01 8.407970444594e-01 1.172327215137e-01
6.127125000000e-02 8.408817910328e-01 1.169343165831e-01 1.591182089672e-01 -1.169343165831e-01 1.591182089672e-01 -1.169343165831e-01 8.408817910328e-01 1.169343165831e-01
6.134500000000e-02 8.409661824386e-01 1.166363424090e-01 1.590338175614e-01 -1.166363424090e-01 1.590338175614e-01 -1.166363424090e-01 8.409661824386e-01 1.166363424090e-01
6.141875000000e-02 8.410502201651e-01 1.163387977985e-01 1.589497798349e-01 -1.163387977985e-01 1.589497798349e-01 -1.163387977985e-01 8.410502201651e-01 1.163387977985e-01
6.149250000000e-02 8.411339056921e-01 1.160416815623e-01 1.588660943079e-01 -1.160416815623e-01 1.588660943079e-01 -1.160416815623e-01 8.411339056921e-01 1.160416815623e-01
6.156625000000e-02 8.412172404917e-01 1.157449925154e-01 1.587827595083e-01 -1.157449925154e-01 1.587827595083e-01 -1.157449925154e-01 8.412172404917e-01 1.157449925154e-01
6.164000000000e-02 8.413002260281e-01 1.154487294763e-01 1.586997739719e-01 -1.154487294763e-01 1.586997739719e-01 -1.154487294763e-01 8.413002260281e-01 1.154487294763e-01
6.171375000000e-02 8.413828637575e-01 1.151528912678e-01 1.586171362425e-01 -1.151528912678e-01 1.586171362425e-01 -1.151528912678e-01 8.413828637575e-01 1.151528912678e-01
6.178750000000e-02 8.414651551284e-01 1.148574767164e-01 1.585348448716e-01 -1.148574767164e-01 1.585348448716e-01 -1.148574767164e-01 8.414651551284e-01 1.148574767164e-01
6.186125000000e-02 8.415471015814e-01 1.145624846524e-01 1.584528984186e-01 -1.145624846524e-01 1.584528984186e-01 -1.145624846524e-01 8.415471015814e-01 1.145624846524e-01
6.193500000000e-02 8.416287045495e-01 1.142679139100e-01 1.583712954505e-01 -1.142679139100e-01 1.583712954505e-01 -1.142679139100e-01 8.416287045495e-01 1.142679139100e-01
6.200875000000e-02 8.417099654580e-01 1.139737633274e-01 1.582900345420e-01 -1.139737633274e-01 1.582900345420e-01 -1.139737633274e-01 8.417099654580e-01 1.139737633274e-01
6.208250000000e-02 8.417908857245e-01 1.136800317464e-01 1.582091142755e-01 -1.136800317464e-01 1.582091142755e-01 -1.136800317464e-01 8.417908857245e-01 1.136800317464e-01
6.215625000000e-02 8.418714667592e-01 1.133867180129e-01 1.581285332408e-01 -1.133867180129e-01 1.581285332408e-01 -1.133867180129e-01 8.418714667592e-01 1.133867180129e-01
6.223000000000e-02 8.419517099646e-01 1.130938209764e-01 1.580482900354e-01 -1.130938209764e-01 1.580482900354e-01 -1.130938209764e-01 8.419517099646e-01 1.130938209764e-01
6.230375000000e-02 8.420316167359e-01 1.128013394902e-01 1.579683832641e-01 -1.128013394902e-01 1.579683832641e-01 -1.128013394902e-01 8.420316167359e-01 1.128013394902e-01
6.237750000000e-02 8.421111884606e-01 1.125092724115e-01 1.578888115394e-01 -1.125092724115e-01 1.578888115394e-01 -1.125092724115e-01 8.421111884606e-01 1.125092724115e-01
6.245125000000e-02 8.421904265191e-01 1.122176186013e-01 1.578095734809e-01 -1.122176186013e-01 1.578095734809e-01 -1.122176186013e-01 8.421904265191e-01 1.122176186013e-01
6.252500000000e-02 8.422693322842e-01 1.119263769243e-01 1.577306677158e-01 -1.119263769243e-01 1.577306677158e-01 -1.119263769243e-01 8.422693322842e-01 1.119263769243e-01
6.259875000000e-02 8.423479071217e-01 1.116355462489e-01 1.576520928783e-01 -1.116355462489e-01 1.576520928783e-01 -1.116355462489e-01 8.423479071217e-01 1.116355462489e-01
6.267250000000e-02 8.424261523899e-01 1.113451254473e-01 1.575738476101e-01 -1.113451254473e-01 1.575738476101e-01 -1.113451254473e-01 8.424261523899e-01 1.113451254473e-01
6.274625000000e-02 8.425040694401e-01 1.110551133954e-01 1.574959305599e-01 -1.110551133954e-01 1.574959305599e-01 -1.110551133954e-01 8.425040694401e-01 1.110551133954e-01
6.282000000000e-02 8.425816596162e-01 1.107655089729e-01 1.574183403838e-01 -1.107655089729e-01 1.574183403838e-01 -1.107655089729e-01 8.425816596162e-01 1.107655089729e-01
6.289375000000e-02 8.426589242552e-01 1.104763110632e-01 1.573410757448e-01 -1.104763110632e-01 1.573410757448e-01 -1.104763110632e-01 8.426589242552e-01 1.104763110632e-01
6.296750000000e-02 8.427358646869e-01 1.101875185532e-01 1.572641353131e-01 -1.101875185532e-01 1.572641353131e-01 -1.101875185532e-01 8.427358646869e-01 1.101875185532e-01
6.304125000000e-02 8.428124822342e-01 1.098991303337e-01 1.571875177658e-01 -1.098991303337e-01 1.571875177658e-01 -1.098991303337e-01 8.428124822342e-01 1.098991303337e-01
6.311500000000e-02 8.428887782129e-01 1.096111452992e-01 1.571112217871e-01 -1.096111452992e-01 1.571112217871e-01 -1.096111452992e-01 8.428887782129e-01 1.096111452992e-01
6.318875000000e-02 8.429647539320e-01 1.093235623476e-01 1.570352460680e-01 -1.093235623476e-01 1.570352460680e-01 -1.093235623476e-01 8.429647539320e-01 1.093235623476e-01
6.326250000000e-02 8.430404106934e-01 1.090363803807e-01 1.569595893066e-01 -1.090363803807e-01 1.569595893066e-01 -1.090363803807e-01 8.430404106934e-01 1.090363803807e-01
6.333625000000e-02 8.431157497924e-01 1.087495983038e-01 1.568842502076e-01 -1.087495983038e-01 1.568842502076e-01 -1.087495983038e-01 8.431157497924e-01 1.087495983038e-01
6.341000000000e-02 8.431907725172e-01 1.084632150258e-01 1.568092274828e-01 -1.084632150258e-01 1.568092274828e-01 -1.084632150258e-01 8.431907725172e-01 1.084632150258e-01
6.348375000000e-02 8.432654801495e-01 1.081772294594e-01 1.567345198505e-01 -1.081772294594e-01 1.567345198505e-01 -1.081772294594e-01 8.432654801495e-01 1.081772294594e-01
6.355750000000e-02 8.433398739642e-01 1.078916405207e-01 1.566601260358e-01 -1.078916405207e-01 1.566601260358e-01 -1.078916405207e-01 8.433398739642e-01 1.078916405207e-01
6.363125000000e-02 8.434139552294e-01 1.076064471295e-01 1.565860447706e-01 -1.076064471295e-01 1.565860447706e-01 -1.076064471295e-01 8.434139552294e-01 1.076064471295e-01
6.370500000000e-02 8.434877252066e-01 1.073216482090e-01 1.565122747934e-01 -1.073216482090e-01 1.565122747934e-01 -1.073216482090e-01 8.434877252066e-01 1.073216482090e-01
6.377875000000e-02 8.435611851509e-01 1.070372426863e-01 1.564388148491e-01 -1.070372426863e-01 1.564388148491e-01 -1.070372426863e-01 8.435611851509e-01 1.070372426863e-01
6.385250000000e-02 8.436343363105e-01 1.067532294917e-01 1.563656636895e-01 -1.067532294917e-01 1.563656636895e-01 -1.067532294917e-01 8.436343363105e-01 1.067532294917e-01
6.392625000000e-02 8.437071799275e-01 1.064696075592e-01 1.562928200725e-01 -1.064696075592e-01 1.562928200725e-01 -1.064696075592e-01 8.437071799275e-01 1.064696075592e-01
6.400000000000e-02 8.437797172370e-01 1.061863758264e-01 1.562202827630e-01 -1.061863758264e-01 1.562202827630e-01 -1.061863758264e-01 8.437797172370e-01 1.061863758264e-01
6.407375000000e-02 8.438519494681e-01 1.059035332343e-01 1.561480505319e-01 -1.059035332343e-01 1.561480505319e-01 -1.059035332343e-01 8.438519494681e-01 1.059035332343e-01
6.414750000000e-02 8.439238778434e-01 1.056210787275e-01 1.560761221566e-01 -1.056210787275e-01 1.560761221566e-01 -1.056210787275e-01 8.439238778434e-01 1.056210787275e-01
6.422125000000e-02 8.439955035789e-01 1.053390112538e-01 1.560044964211e-01 -1.053390112538e-01 1.560044964211e-01 -1.053390112538e-01 8.439955035789e-01 1.053390112538e-01
6.429500000000e-02 8.440668278846e-01 1.050573297650e-01 1.559331721154e-01 -1.050573297650e-01 1.559331721154e-01 -1.050573297650e-01 8.440668278846e-01 1.050573297650e-01
6.436875000000e-02 8.441378519640e-01 1.047760332160e-01 1.558621480360e-01 -1.047760332160e-01 1.558621480360e-01 -1.047760332160e-01 8.441378519640e-01 1.047760332160e-01
6.444250000000e-02 8.442085770144e-01 1.044951205652e-01 1.557914229856e-01 -1.044951205652e-01 1.557914229856e-01 -1.044951205652e-01 8.442085770144e-01 1.044951205652e-01
6.451625000000e-02 8.442790042270e-01 1.042145907745e-01 1.557209957730e-01 -1.042145907745e-01 1.557209957730e-01 -1.042145907745e-01 8.442790042270e-01 1.042145907745e-01
6.459000000000e-02 8.443491347868e-01 1.039344428092e-01 1.556508652132e-01 -1.039344428092e-01 1.556508652132e-01 -1.039344428092e-01 8.443491347868e-01 1.039344428092e-01
6.466375000000e-02 8.444189698724e-01 1.036546756382e-01 1.555810301276e-01 -1.036546756382e-01 1.555810301276e-01 -1.036546756382e-01 8.444189698724e-01 1.036546756382e-01
6.473750000000e-02 8.444885106568e-01 1.033752882335e-01 1.555114893432e-01 -1.033752882335e-01 1.555114893432e-01 -1.033752882335e-01 8.444885106568e-01 1.033752882335e-01
6.481125000000e-02 8.445577583064e-01 1.030962795708e-01 1.554422416936e-01 -1.030962795708e-01 1.554422416936e-01 -1.030962795708e-01 8.445577583064e-01 1.030962795708e-01
6.488500000000e-02 8.446267139821e-01 1.028176486290e-01 1.553732860179e-01 -1.028176486290e-01 1.553732860179e-01 -1.028176486290e-01 8.446267139821e-01 1.028176486290e-01
6.495875000000e-02 8.446953788384e-01 1.025393943904e-01 1.553046211616e-01 -1.025393943904e-01 1.553046211616e-01 -1.025393943904e-01 8.446953788384e-01 1.025393943904e-01
6.503250000000e-02 8.447637540241e-01 1.022615158408e-01 1.552362459759e-01 -1.022615158408e-01 1.552362459759e-01 -1.022615158408e-01 8.447637540241e-01 1.022615158408e-01
6.510625000000e-02 8.448318406819e-01 1.019840119692e-01 1.551681593181e-01 -1.019840119692e-01 1.551681593181e-01 -1.019840119692e-01 8.448318406819e-01 1.019840119692e-01
6.518000000000e-02 8.448996399489e-01 1.017068817680e-01 1.551003600511e-01 -1.017068817680e-01 1.551003600511e-01 -1.017068817680e-01 8.448996399489e-01 1.017068817680e-01
6.525375000000e-02 8.449671529561e-01 1.014301242330e-01 1.550328470439e-01 -1.014301242330e-01 1.550328470439e-01 -1.014301242330e-01 8.449671529561e-01 1.014301242330e-01
6.532750000000e-02 8.450343808288e-01 1.011537383632e-01 1.549656191712e-01 -1.011537383632e-01 1.549656191712e-01 -1.011537383632e-01 8.450343808288e-01 1.011537383632e-01
6.540125000000e-02 8.451013246865e-01 1.008777231610e-01 1.548986753135e-01 -1.008777231610e-01 1.548986753135e-01 -1.008777231610e-01 8.451013246865e-01 1.008777231610e-01
6.547500000000e-02 8.451679856430e-01 1.006020776321e-01 1.548320143570e-01 -1.006020776321e-01 1.548320143570e-01 -1.006020776321e-01 8.451679856430e-01 1.006020776321e-01
6.554875000000e-02 8.452343648064e-01 1.003268007853e-01 1.547656351936e-01 -1.003268007853e-01 1.547656351936e-01 -1.003268007853e-01 8.452343648064e-01 1.003268007853e-01
6.562250000000e-02 8.453004632791e-01 1.000518916331e-01 1.546995367209e-01 -1.000518916331e-01 1.546995367209e-01 -1.000518916331e-01 8.453004632791e-01 1.000518916331e-01
6.569625000000e-02 8.453662821579e-01 9.977734919083e-02 1.546337178421e-01 -9.977734919083e-02 1.546337178421e-01 -9.977734919083e-02 8.453662821579e-01 9.977734919083e-02
6.577000000000e-02 8.454318225341e-01 9.950317247729e-02 1.545681774659e-01 -9.950317247729e-02 1.545681774659e-01 -9.950317247729e-02 8.454318225341e-01 9.950317247729e-02
6.584375000000e-02 8.454970854932e-01 9.922936051448e-02 1.545029145068e-01 -9.922936051448e-02 1.545029145068e-01 -9.922936051448e-02 8.454970854932e-01 9.922936051448e-02
6.591750000000e-02 8.455620721153e-01 9.895591232764e-02 1.544379278847e-01 -9.895591232764e-02 1.544379278847e-01 -9.895591232764e-02 8.455620721153e-01 9.895591232764e-02
6.599125000000e-02 8.456267834751e-01 9.868282694522e-02 1.543732165249e-01 -9.868282694522e-02 1.543732165249e-01 -9.868282694522e-02 8.456267834751e-01 9.868282694522e-02
6.606500000000e-02 8.456912206417e-01 9.841010339890e-02 1.543087793583e-01 -9.841010339890e-02 1.543087793583e-01 -9.841010339890e-02 8.456912206417e-01 9.841010339890e-02
6.613875000000e-02 8.457553846788e-01 9.813774072353e-02 1.542446153212e-01 -9.813774072353e-02 1.542446153212e-01 -9.813774072353e-02 8.457553846788e-01 9.813774072353e-02
6.621250000000e-02 8.458192766448e-01 9.786573795717e-02 1.541807233552e-01 -9.786573795717e-02 1.541807233552e-01 -9.786573795717e-02 8.458192766448e-01 9.786573795717e-02
6.628625000000e-02 8.458828975925e-01 9.759409414106e-02 1.541171024075e-01 -9.759409414106e-02 1.541171024075e-01 -9.759409414106e-02 8.458828975925e-01 9.759409414106e-02
6.636000000000e-02 8.459462485696e-01 9.732280831960e-02 1.540537514304e-01 -9.732280831960e-02 1.540537514304e-01 -9.732280831960e-02 8.459462485696e-01 9.732280831960e-02
6.643375000000e-02 8.460093306185e-01 9.705187954033e-02 1.539906693815e-01 -9.705187954033e-02 1.539906693815e-01 -9.705187954033e-02 8.460093306185e-01 9.705187954033e-02
6.650750000000e-02 8.460721447761e-01 9.678130685397e-02 1.539278552239e-01 -9.678130685397e-02 1.539278552239e-01 -9.678130685397e-02 8.460721447761e-01 9.678130685397e-02
6.658125000000e-02 8.461346920742e-01 9.651108931433e-02 1.538653079258e-01 -9.651108931433e-02 1.538653079258e-01 -9.651108931433e-02 8.461346920742e-01 9.651108931433e-02
6.665500000000e-02 8.461969735396e-01 9.624122597839e-02 1.538030264604e-01 -9.624122597839e-02 1.538030264604e-01 -9.624122597839e-02 8.461969735396e-01 9.624122597839e-02
6.672875000000e-02 8.462589901935e-01 9.597171590620e-02 1.537410098065e-01 -9.597171590620e-02 1.537410098065e-01 -9.597171590620e-02 8.462589901935e-01 9.597171590620e-02
6.680250000000e-02 8.463207430523e-01 9.570255816094e-02 1.536792569477e-01 -9.570255816094e-02 1.536792569477e-01 -9.570255816094e-02 8.463207430523e-01 9.570255816094e-02
6.687625000000e-02 8.463822331271e-01 9.543375180888e-02 1.536177668729e-01 -9.543375180888e-02 1.536177668729e-01 -9.543375180888e-02 8.463822331271e-01 9.543375180888e-02
6.695000000000e-02 8.464434614240e-01 9.516529591934e-02 1.535565385760e-01 -9.516529591934e-02 1.535565385760e-01 -9.516529591934e-02 8.464434614240e-01 9.516529591934e-02
6.702375000000e-02 8.465044289441e-01 9.489718956475e-02 1.534955710559e-01 -9.489718956475e-02 1.534955710559e-01 -9.489718956475e-02 8.465044289441e-01 9.489718956475e-02
6.709750000000e-02 8.465651366833e-01 9.462943182057e-02 1.534348633167e-01 -9.462943182057e-02 1.534348633167e-01 -9.462943182057e-02 8.465651366833e-01 9.462943182057e-02
6.717125000000e-02 8.466255856326e-01 9.436202176532e-02 1.533744143674e-01 -9.436202176532e-02 1.533744143674e-01 -9.436202176532e-02 8.466255856326e-01 9.436202176532e-02
6.724500000000e-02 8.466857767781e-01 9.409495848055e-02 1.533142232219e-01 -9.409495848055e-02 1.533142232219e-01 -9.409495848055e-02 8.466857767781e-01 9.409495848055e-02
6.731875000000e-02 8.467457111009e-01 9.382824105085e-02 1.532542888991e-01 -9.382824105085e-02 1.532542888991e-01 -9.382824105085e-02 8.467457111009e-01 9.382824105085e-02
6.739250000000e-02 8.468053895772e-01 9.356186856382e-02 1.531946104228e-01 -9.356186856382e-02 1.531946104228e-01 -9.356186856382e-02 8.468053895772e-01 9.356186856382e-02
6.746625000000e-02 8.468648131783e-01 9.329584011006e-02 1.531351868217e-01 -9.329584011006e-02 1.531351868217e-01 -9.329584011006e-02 8.468648131783e-01 9.329584011006e-02
6.754000000000e-02 8.469239828708e-01 9.303015478318e-02 1.530760171292e-01 -9.303015478318e-02 1.530760171292e-01 -9.303015478318e-02 8.469239828708e-01 9.303015478318e-02
6.761375000000e-02 8.469828996161e-01 9.276481167974e-02 1.530171003839e-01 -9.276481167974e-02 1.530171003839e-01 -9.276481167974e-02 8.469828996161e-01 9.276481167974e-02
6.768750000000e-02 8.470415643713e-01 9.249980989933e-02 1.529584356287e-01 -9.249980989933e-02 1.529584356287e-01 -9.249980989933e-02 8.470415643713e-01 9.249980989933e-02
6.776125000000e-02 8.470999780884e-01 9.223514854445e-02 1.529000219116e-01 -9.223514854445e-02 1.529000219116e-01 -9.223514854445e-02 8.470999780884e-01 9.223514854445e-02
6.783500000000e-02 8.471581417147e-01 9.197082672059e-02 1.528418582853e-01 -9.197082672059e-02 1.528418582853e-01 -9.197082672059e-02 8.471581417147e-01 9.197082672059e-02
6.790875000000e-02 8.472160561930e-01 9.170684353616e-02 1.527839438070e-01 -9.170684353616e-02 1.527839438070e-01 -9.170684353616e-02 8.472160561930e-01 9.170684353616e-02
6.798250000000e-02 8.472737224612e-01 9.144319810253e-02 1.527262775388e-01 -9.144319810253e-02 1.527262775388e-01 -9.144319810253e-02 8.472737224612e-01 9.144319810253e-02
6.805625000000e-02 8.473311414526e-01 9.117988953396e-02 1.526688585474e-01 -9.117988953396e-02 1.526688585474e-01 -9.117988953396e-02 8.473311414526e-01 9.117988953396e-02
6.813000000000e-02 8.473883140960e-01 9.091691694765e-02 1.526116859040e-01 -9.091691694765e-02 1.526116859040e-01 -9.091691694765e-02 8.473883140960e-01 9.091691694765e-02
6.820375000000e-02 8.474452413154e-01 9.065427946369e-02 1.525547586846e-01 -9.065427946369e-02 1.525547586846e-01 -9.065427946369e-02 8.474452413154e-01 9.065427946369e-02
6.827750000000e-02 8.475019240304e-01 9.039197620505e-02 1.524980759696e-01 -9.039197620505e-02 1.524980759696e-01 -9.039197620505e-02 8.475019240304e-01 9.039197620505e-02
6.835125000000e-02 8.475583631560e-01 9.013000629762e-02 1.524416368440e-01 -9.013000629762e-02 1.524416368440e-01 -9.013000629762e-02 8.475583631560e-01 9.013000629762e-02
6.842500000000e-02 8.476145596026e-01 8.986836887011e-02 1.523854403974e-01 -8.986836887011e-02 1.523854403974e-01 -8.986836887011e-02 8.476145596026e-01 8.986836887011e-02
6.849875000000e-02 8.476705142762e-01 8.960706305414e-02 1.523294857238e-01 -8.960706305414e-02 1.523294857238e-01 -8.960706305414e-02 8.476705142762e-01 8.960706305414e-02
6.857250000000e-02 8.477262280783e-01 8.934608798415e-02 1.522737719217e-01 -8.934608798415e-02 1.522737719217e-01 -8.934608798415e-02 8.477262280783e-01 8.934608798415e-02
6.864625000000e-02 8.477817019061e-01 8.908544279744e-02 1.522182980939e-01 -8.908544279744e-02 1.522182980939e-01 -8.908544279744e-02 8.477817019061e-01 8.908544279744e-02
6.872000000000e-02 8.478369366522e-01 8.882512663412e-02 1.521630633478e-01 -8.882512663412e-02 1.521630633478e-01 -8.882512663412e-02 8.478369366522e-01 8.882512663412e-02
6.879375000000e-02 8.478919332047e-01 8.856513863715e-02 1.521080667953e-01 -8.856513863715e-02 1.521080667953e-01 -8.856513863715e-02 8.478919332047e-01 8.856513863715e-02
6.886750000000e-02 8.479466924478e-01 8.830547795227e-02 1.520533075522e-01 -8.830547795227e-02 1.520533075522e-01 -8.830547795227e-02 8.479466924478e-01 8.830547795227e-02
6.894125000000e-02 8.480012152609e-01 8.804614372806e-02 1.519987847391e-01 -8.804614372806e-02 1.519987847391e-01 -8.804614372806e-02 8.480012152609e-01 8.804614372806e-02
6.901500000000e-02 8.480555025193e-01 8.778713511585e-02 1.519444974807e-01 -8.778713511585e-02 1.519444974807e-01 -8.778713511585e-02 8.480555025193e-01 8.778713511585e-02
6.908875000000e-02 8.481095550940e-01 8.752845126978e-02 1.518904449060e-01 -8.752845126978e-02 1.518904449060e-01 -8.752845126978e-02 8.481095550940e-01 8.752845126978e-02
6.916250000000e-02 8.481633738517e-01 8.727009134675e-02 1.518366261483e-01 -8.727009134675e-02 1.518366261483e-01 -8.727009134675e-02 8.481633738517e-01 8.727009134675e-02
6.923625000000e-02 8.482169596549e-01 8.701205450644e-02 1.517830403451e-01 -8.701205450644e-02 1.517830403451e-01 -8.701205450644e-02 8.482169596549e-01 8.701205450644e-02
6.931000000000e-02 8.482703133618e-01 8.675433991125e-02 1.517296866382e-01 -8.675433991125e-02 1.517296866382e-01 -8.675433991125e-02 8.482703133618e-01 8.675433991125e-02
6.938375000000e-02 8.483234358266e-01 8.649694672635e-02 1.516765641734e-01 -8.649694672635e-02 1.516765641734e-01 -8.649694672635e-02 8.483234358266e-01 8.649694672635e-02
6.945750000000e-02 8.483763278992e-01 8.623987411963e-02 1.516236721008e-01 -8.623987411963e-02 1.516236721008e-01 -8.623987411963e-02 8.483763278992e-01 8.623987411963e-02
6.953125000000e-02 8.484289904253e-01 8.598312126171e-02 1.515710095747e-01 -8.598312126171e-02 1.515710095747e-01 -8.598312126171e-02 8.484289904253e-01 8.598312126171e-02
6.960500000000e-02 8.484814242465e-01 8.572668732593e-02 1.515185757535e-01 -8.572668732593e-02 1.515185757535e-01 -8.572668732593e-02 8.484814242465e-01 8.572668732593e-02
6.967875000000e-02 8.485336302006e-01 8.547057148831e-02 1.514663697994e-01 -8.547057148831e-02 1.514663697994e-01 -8.547057148831e-02 8.485336302006e-01 8.547057148831e-02
6.975250000000e-02 8.485856091209e-01 8.521477292758e-02 1.514143908791e-01 -8.521477292758e-02 1.514143908791e-01 -8.521477292758e-02 8.485856091209e-01 8.521477292758e-02
6.982625000000e-02 8.486373618370e-01 8.495929082517e-02 1.513626381630e-01 -8.495929082517e-02 1.513626381630e-01 -8.495929082517e-02 8.486373618370e-01 8.495929082517e-02
6.990000000000e-02 8.486888891742e-01 8.470412436515e-02 1.513111108258e-01 -8.470412436515e-02 1.513111108258e-01 -8.470412436515e-02 8.486888891742e-01 8.470412436515e-02
6.997375000000e-02 8.487401919540e-01 8.444927273429e-02 1.512598080460e-01 -8.444927273429e-02 1.512598080460e-01 -8.444927273429e-02 8.487401919540e-01 8.444927273429e-02
7.004750000000e-02 8.487912709938e-01 8.419473512199e-02 1.512087290062e-01 -8.419473512199e-02 1.512087290062e-01 -8.419473512199e-02 8.487912709938e-01 8.419473512199e-02
7.012125000000e-02 8.488421271072e-01 8.394051072031e-02 1.511578728928e-01 -8.394051072031e-02 1.511578728928e-01 -8.394051072031e-02 8.488421271072e-01 8.394051072031e-02
7.019500000000e-02 8.488927611038e-01 8.368659872395e-02 1.511072388962e-01 -8.368659872395e-02 1.511072388962e-01 -8.368659872395e-02 8.488927611038e-01 8.368659872395e-02
7.026875000000e-02 8.489431737891e-01 8.343299833023e-02 1.510568262109e-01 -8.343299833023e-02 1.510568262109e-01 -8.343299833023e-02 8.489431737891e-01 8.343299833023e-02
7.034250000000e-02 8.489933659651e-01 8.317970873909e-02 1.510066340349e-01 -8.317970873909e-02 1.510066340349e-01 -8.317970873909e-02 8.489933659651e-01 8.317970873909e-02
7.041625000000e-02 8.490433384295e-01 8.292672915309e-02 1.509566615705e-01 -8.292672915309e-02 1.509566615705e-01 -8.292672915309e-02 8.490433384295e-01 8.292672915309e-02
7.049000000000e-02 8.490930919766e-01 8.267405877737e-02 1.509069080234e-01 -8.267405877737e-02 1.509069080234e-01 -8.267405877737e-02 8.490930919766e-01 8.267405877737e-02
7.056375000000e-02 8.491426273965e-01 8.242169681968e-02 1.508573726035e-01 -8.242169681968e-02 1.508573726035e-01 -8.242169681968e-02 8.491426273965e-01 8.242169681968e-02
7.063750000000e-02 8.491919454756e-01 8.216964249033e-02 1.508080545244e-01 -8.216964249033e-02 1.508080545244e-01 -8.216964249033e-02 8.491919454756e-01 8.216964249033e-02
7.071125000000e-02 8.492410469968e-01 8.191789500223e-02 1.507589530032e-01 -8.191789500223e-02 1.507589530032e-01 -8.191789500223e-02 8.492410469968e-01 8.191789500223e-02
7.078500000000e-02 8.492899327389e-01 8.166645357083e-02 1.507100672611e-01 -8.166645357083e-02 1.507100672611e-01 -8.166645357083e-02 8.492899327389e-01 8.166645357083e-02
7.085875000000e-02 8.493386034771e-01 8.141531741414e-02 1.506613965229e-01 -8.141531741414e-02 1.506613965229e-01 -8.141531741414e-02 8.493386034771e-01 8.141531741414e-02
7.093250000000e-02 8.493870599829e-01 8.116448575273e-02 1.506129400171e-01 -8.116448575273e-02 1.506129400171e-01 -8.116448575273e-02 8.493870599829e-01 8.116448575273e-02
7.100625000000e-02 8.494353030241e-01 8.091395780968e-02 1.505646969759e-01 -8.091395780968e-02 1.505646969759e-01 -8.091395780968e-02 8.494353030241e-01 8.091395780968e-02
7.108000000000e-02 8.494833333648e-01 8.066373281061e-02 1.505166666352e-01 -8.066373281061e-02 1.505166666352e-01 -8.066373281061e-02 8.494833333648e-01 8.066373281061e-02
7.115375000000e-02 8.495311517655e-01 8.041380998366e-02 1.504688482345e-01 -8.041380998366e-02 1.504688482345e-01 -8.041380998366e-02 8.495311517655e-01 8.041380998366e-02
7.122750000000e-02 8.495787589831e-01 8.016418855948e-02 1.504212410169e-01 -8.016418855948e-02 1.504212410169e-01 -8.016418855948e-02 8.495787589831e-01 8.016418855948e-02
7.130125000000e-02 8.496261557707e-01 7.991486777121e-02 1.503738442293e-01 -7.991486777121e-02 1.503738442293e-01 -7.991486777121e-02 8.496261557707e-01 7.991486777121e-02
7.137500000000e-02 8.496733428781e-01 7.966584685448e-02 1.503266571219e-01 -7.966584685448e-02 1.503266571219e-01 -7.966584685448e-02 8.496733428781e-01 7.966584685448e-02
7.144875000000e-02 8.497203210512e-01 7.941712504741e-02 1.502796789488e-01 -7.941712504741e-02 1.502796789488e-01 -7.941712504741e-02 8.497203210512e-01 7.941712504741e-02
7.152250000000e-02 8.497670910327e-01 7.916870159059e-02 1.502329089673e-01 -7.916870159059e-02 1.502329089673e-01 -7.916870159059e-02 8.497670910327e-01 7.916870159059e-02
7.159625000000e-02 8.498136535616e-01 7.892057572708e-02 1.501863464384e-01 -7.892057572708e-02 1.501863464384e-01 -7.892057572708e-02 8.498136535616e-01 7.892057572708e-02
7.167000000000e-02 8.498600093733e-01 7.867274670238e-02 1.501399906267e-01 -7.867274670238e-02 1.501399906267e-01 -7.867274670238e-02 8.498600093733e-01 7.867274670238e-02
7.174375000000e-02 8.499061591999e-01 7.842521376445e-02 1.500938408001e-01 -7.842521376445e-02 1.500938408001e-01 -7.842521376445e-02 8.499061591999e-01 7.842521376445e-02
7.181750000000e-02 8.499521037699e-01 7.817797616369e-02 1.500478962301e-01 -7.817797616369e-02 1.500478962301e-01 -7.817797616369e-02 8.499521037699e-01 7.817797616369e-02
7.189125000000e-02 8.499978438084e-01 7.793103315290e-02 1.500021561916e-01 -7.793103315290e-02 1.500021561916e-01 -7.793103315290e-02 8.499978438084e-01 7.793103315290e-02
7.196500000000e-02 8.500433800371e-01 7.768438398735e-02 1.499566199629e-01 -7.768438398735e-02 1.499566199629e-01 -7.768438398735e-02 8.500433800371e-01 7.768438398735e-02
7.203875000000e-02 8.500887131742e-01 7.743802792467e-02 1.499112868258e-01 -7.743802792467e-02 1.499112868258e-01 -7.743802792467e-02 8.500887131742e-01 7.743802792467e-02
7.211250000000e-02 8.501338439346e-01 7.719196422492e-02 1.498661560654e-01 -7.719196422492e-02 1.498661560654e-01 -7.719196422492e-02 8.501338439346e-01 7.719196422492e-02
7.218625000000e-02 8.501787730299e-01 7.694619215056e-02 1.498212269701e-01 -7.694619215056e-02 1.498212269701e-01 -7.694619215056e-02 8.501787730299e-01 7.694619215056e-02
7.226000000000e-02 8.502235011680e-01 7.670071096642e-02 1.497764988320e-01 -7.670071096642e-02 1.497764988320e-01 -7.670071096642e-02 8.502235011680e-01 7.670071096642e-02
7.233375000000e-02 8.502680290539e-01 7.645551993972e-02 1.497319709461e-01 -7.645551993972e-02 1.497319709461e-01 -7.645551993972e-02 8.502680290539e-01 7.645551993972e-02
7.240750000000e-02 8.503123573891e-01 7.621061834002e-02 1.496876426109e-01 -7.621061834002e-02 1.496876426109e-01 -7.621061834002e-02 8.503123573891e-01 7.621061834002e-02
7.248125000000e-02 8.503564868717e-01 7.596600543928e-02 1.496435131283e-01 -7.596600543928e-02 1.496435131283e-01 -7.596600543928e-02 8.503564868717e-01 7.596600543928e-02
7.255500000000e-02 8.504004181966e-01 7.572168051179e-02 1.495995818034e-01 -7.572168051179e-02 1.495995818034e-01 -7.572168051179e-02 8.504004181966e-01 7.572168051179e-02
7.262875000000e-02 8.504441520556e-01 7.547764283418e-02 1.495558479444e-01 -7.547764283418e-02 1.495558479444e-01 -7.547764283418e-02 8.504441520556e-01 7.547764283418e-02
7.270250000000e-02 8.504876891370e-01 7.523389168543e-02 1.495123108630e-01 -7.523389168543e-02 1.495123108630e-01 -7.523389168543e-02 8.504876891370e-01 7.523389168543e-02
7.277625000000e-02 8.505310301260e-01 7.499042634682e-02 1.494689698740e-01 -7.499042634682e-02 1.494689698740e-01 -7.499042634682e-02 8.505310301260e-01 7.499042634682e-02
7.285000000000e-02 8.505741757046e-01 7.474724610197e-02 1.494258242954e-01 -7.474724610197e-02 1.494258242954e-01 -7.474724610197e-02 8.505741757046e-01 7.474724610197e-02
7.292375000000e-02 8.506171265516e-01 7.450435023681e-02 1.493828734484e-01 -7.450435023681e-02 1.493828734484e-01 -7.450435023681e-02 8.506171265516e-01 7.450435023681e-02
7.299750000000e-02 8.506598833426e-01 7.426173803957e-02 1.493401166574e-01 -7.426173803957e-02 1.493401166574e-01 -7.426173803957e-02 8.506598833426e-01 7.426173803957e-02
7.307125000000e-02 8.507024467501e-01 7.401940880075e-02 1.492975532499e-01 -7.401940880075e-02 1.492975532499e-01 -7.401940880075e-02 8.507024467501e-01 7.401940880075e-02
7.314500000000e-02 8.507448174434e-01 7.377736181317e-02 1.492551825566e-01 -7.377736181317e-02 1.492551825566e-01 -7.377736181317e-02 8.507448174434e-01 7.377736181317e-02
7.321875000000e-02 8.507869960888e-01 7.353559637189e-02 1.492130039112e-01 -7.353559637189e-02 1.492130039112e-01 -7.353559637189e-02 8.507869960888e-01 7.353559637189e-02
7.329250000000e-02 8.508289833493e-01 7.329411177428e-02 1.491710166507e-01 -7.329411177428e-02 1.491710166507e-01 -7.329411177428e-02 8.508289833493e-01 7.329411177428e-02
7.336625000000e-02 8.508707798850e-01 7.305290731993e-02 1.491292201150e-01 -7.305290731993e-02 1.491292201150e-01 -7.305290731993e-02 8.508707798850e-01 7.305290731993e-02
7.344000000000e-02 8.509123863529e-01 7.281198231071e-02 1.490876136471e-01 -7.281198231071e-02 1.490876136471e-01 -7.281198231071e-02 8.509123863529e-01 7.281198231071e-02
7.351375000000e-02 8.509538034068e-01 7.257133605072e-02 1.490461965932e-01 -7.257133605072e-02 1.490461965932e-01 -7.257133605072e-02 8.509538034068e-01 7.257133605072e-02
7.358750000000e-02 8.509950316977e-01 7.233096784630e-02 1.490049683023e-01 -7.233096784630e-02 1.490049683023e-01 -7.233096784630e-02 8.509950316977e-01 7.233096784630e-02
7.366125000000e-02 8.510360718734e-01 7.209087700601e-02 1.489639281266e-01 -7.209087700601e-02 1.489639281266e-01 -7.209087700601e-02 8.510360718734e-01 7.209087700601e-02
7.373500000000e-02 8.510769245788e-01 7.185106284065e-02 1.489230754212e-01 -7.185106284065e-02 1.489230754212e-01 -7.185106284065e-02 8.510769245788e-01 7.185106284065e-02
7.380875000000e-02 8.511175904557e-01 7.161152466320e-02 1.488824095443e-01 -7.161152466320e-02 1.488824095443e-01 -7.161152466320e-02 8.511175904557e-01 7.161152466320e-02
7.388250000000e-02 8.511580701432e-01 7.137226178889e-02 1.488419298568e-01 -7.137226178889e-02 1.488419298568e-01 -7.137226178889e-02 8.511580701432e-01 7.137226178889e-02
7.395625000000e-02 8.511983642771e-01 7.113327353509e-02 1.488016357229e-01 -7.113327353509e-02 1.488016357229e-01 -7.113327353509e-02 8.511983642771e-01 7.113327353509e-02
7.403000000000e-02 8.512384734904e-01 7.089455922141e-02 1.487615265096e-01 -7.089455922141e-02 1.487615265096e-01 -7.089455922141e-02 8.512384734904e-01 7.089455922141e-02
7.410375000000e-02 8.512783984134e-01 7.065611816960e-02 1.487216015866e-01 -7.065611816960e-02 1.487216015866e-01 -7.065611816960e-02 8.512783984134e-01 7.065611816960e-02
7.417750000000e-02 8.513181396731e-01 7.041794970361e-02 1.486818603269e-01 -7.041794970361e-02 1.486818603269e-01 -7.041794970361e-02 8.513181396731e-01 7.041794970361e-02
7.425125000000e-02 8.513576978940e-01 7.018005314953e-02 1.486423021060e-01 -7.018005314953e-02 1.486423021060e-01 -7.018005314953e-02 8.513576978940e-01 7.018005314953e-02
7.432500000000e-02 8.513970736974e-01 6.994242783564e-02 1.486029263026e-01 -6.994242783564e-02 1.486029263026e-01 -6.994242783564e-02 8.513970736974e-01 6.994242783564e-02
7.439875000000e-02 8.514362677020e-01 6.970507309233e-02 1.485637322980e-01 -6.970507309233e-02 1.485637322980e-01 -6.970507309233e-02 8.514362677020e-01 6.970507309233e-02
7.447250000000e-02 8.514752805236e-01 6.946798825216e-02 1.485247194764e-01 -6.946798825216e-02 1.485247194764e-01 -6.946798825216e-02 8.514752805236e-01 6.946798825216e-02
7.454625000000e-02 8.515141127750e-01 6.923117264981e-02 1.484858872250e-01 -6.923117264981e-02 1.484858872250e-01 -6.923117264981e-02 8.515141127750e-01 6.923117264981e-02
7.462000000000e-02 8.515527650663e-01 6.899462562209e-02 1.484472349337e-01 -6.899462562209e-02 1.484472349337e-01 -6.899462562209e-02 8.515527650663e-01 6.899462562209e-02
7.469375000000e-02 8.515912380050e-01 6.875834650793e-02 1.484087619950e-01 -6.875834650793e-02 1.484087619950e-01 -6.875834650793e-02 8.515912380050e-01 6.875834650793e-02
7.476750000000e-02 8.516295321956e-01 6.852233464837e-02 1.483704678044e-01 -6.852233464837e-02 1.483704678044e-01 -6.852233464837e-02 8.516295321956e-01 6.852233464837e-02
7.484125000000e-02 8.516676482398e-01 6.828658938655e-02 1.483323517602e-01 -6.828658938655e-02 1.483323517602e-01 -6.828658938655e-02 8.516676482398e-01 6.828658938655e-02
7.491500000000e-02 8.517055867368e-01 6.805111006769e-02 1.482944132632e-01 -6.805111006769e-02 1.482944132632e-01 -6.805111006769e-02 8.517055867368e-01 6.805111006769e-02
7.498875000000e-02 8.517433482827e-01 6.781589603914e-02 1.482566517173e-01 -6.781589603914e-02 1.482566517173e-01 -6.781589603914e-02 8.517433482827e-01 6.781589603914e-02
7.506250000000e-02 8.517809334713e-01 6.758094665029e-02 1.482190665287e-01 -6.758094665029e-02 1.482190665287e-01 -6.758094665029e-02 8.517809334713e-01 6.758094665029e-02
7.513625000000e-02 8.518183428934e-01 6.734626125262e-02 1.481816571066e-01 -6.734626125262e-02 1.481816571066e-01 -6.734626125262e-02 8.518183428934e-01 6.734626125262e-02
7.521000000000e-02 8.518555771371e-01 6.711183919967e-02 1.481444228629e-01 -6.711183919967e-02 1.481444228629e-01 -6.711183919967e-02 8.518555771371e-01 6.711183919967e-02
7.528375000000e-02 8.518926367881e-01 6.687767984704e-02 1.481073632119e-01 -6.687767984704e-02 1.481073632119e-01 -6.687767984704e-02 8.518926367881e-01 6.687767984704e-02
7.535750000000e-02 8.519295224292e-01 6.664378255239e-02 1.480704775708e-01 -6.664378255239e-02 1.480704775708e-01 -6.664378255239e-02 8.519295224292e-01 6.664378255239e-02
7.543125000000e-02 8.519662346405e-01 6.641014667541e-02 1.480337653595e-01 -6.641014667541e-02 1.480337653595e-01 -6.641014667541e-02 8.519662346405e-01 6.641014667541e-02
7.550500000000e-02 8.520027739998e-01 6.617677157782e-02 1.479972260002e-01 -6.617677157782e-02 1.479972260002e-01 -6.617677157782e-02 8.520027739998e-01 6.617677157782e-02
7.557875000000e-02 8.520391410819e-01 6.594365662339e-02 1.479608589181e-01 -6.594365662339e-02 1.479608589181e-01 -6.594365662339e-02 8.520391410819e-01 6.594365662339e-02
7.565250000000e-02 8.520753364593e-01 6.571080117789e-02 1.479246635407e-01 -6.571080117789e-02 1.479246635407e-01 -6.571080117789e-02 8.520753364593e-01 6.571080117789e-02
7.572625000000e-02 8.521113607017e-01 6.547820460912e-02 1.478886392983e-01 -6.547820460912e-02 1.478886392983e-01 -6.547820460912e-02 8.521113607017e-01 6.547820460912e-02
7.580000000000e-02 8.521472143763e-01 6.524586628688e-02 1.478527856237e-01 -6.524586628688e-02 1.478527856237e-01 -6.524586628688e-02 8.521472143763e-01 6.524586628688e-02
7.587375000000e-02 8.521828980478e-01 6.501378558296e-02 1.478171019522e-01 -6.501378558296e-02 1.478171019522e-01 -6.501378558296e-02 8.521828980478e-01 6.501378558296e-02
7.594750000000e-02 8.522184122782e-01 6.478196187117e-02 1.477815877218e-01 -6.478196187117e-02 1.477815877218e-01 -6.478196187117e-02 8.522184122782e-01 6.478196187117e-02
7.602125000000e-02 8.522537576272e-01 6.455039452727e-02 1.477462423728e-01 -6.455039452727e-02 1.477462423728e-01 -6.455039452727e-02 8.522537576272e-01 6.455039452727e-02
7.609500000000e-02 8.522889346517e-01 6.431908292901e-02 1.477110653483e-01 -6.431908292901e-02 1.477110653483e-01 -6.431908292901e-02 8.522889346517e-01 6.431908292901e-02
7.616875000000e-02 8.523239439064e-01 6.408802645613e-02 1.476760560936e-01 -6.408802645613e-02 1.476760560936e-01 -6.408802645613e-02 8.523239439064e-01 6.408802645613e-02
7.624250000000e-02 8.523587859432e-01 6.385722449032e-02 1.476412140568e-01 -6.385722449032e-02 1.476412140568e-01 -6.385722449032e-02 8.523587859432e-01 6.385722449032e-02
7.631625000000e-02 8.523934613117e-01 6.362667641521e-02 1.476065386883e-01 -6.362667641521e-02 1.476065386883e-01 -6.362667641521e-02 8.523934613117e-01 6.362667641521e-02
7.639000000000e-02 8.524279705590e-01 6.339638161640e-02 1.475720294410e-01 -6.339638161640e-02 1.475720294410e-01 -6.339638161640e-02 8.524279705590e-01 6.339638161640e-02
7.646375000000e-02 8.524623142298e-01 6.316633948144e-02 1.475376857702e-01 -6.316633948144e-02 1.475376857702e-01 -6.316633948144e-02 8.524623142298e-01 6.316633948144e-02
7.653750000000e-02 8.524964928663e-01 6.293654939979e-02 1.475035071337e-01 -6.293654939979e-02 1.475035071337e-01 -6.293654939979e-02 8.524964928663e-01 6.293654939979e-02
7.661125000000e-02 8.525305070082e-01 6.270701076285e-02 1.474694929918e-01 -6.270701076285e-02 1.474694929918e-01 -6.270701076285e-02 8.525305070082e-01 6.270701076285e-02
7.668500000000e-02 8.525643571929e-01 6.247772296395e-02 1.474356428071e-01 -6.247772296395e-02 1.474356428071e-01 -6.247772296395e-02 8.525643571929e-01 6.247772296395e-02
7.675875000000e-02 8.525980439553e-01 6.224868539832e-02 1.474019560447e-01 -6.224868539832e-02 1.474019560447e-01 -6.224868539832e-02 8.525980439553e-01 6.224868539832e-02
7.683250000000e-02 8.526315678281e-01 6.201989746312e-02 1.473684321719e-01 -6.201989746312e-02 1.473684321719e-01 -6.201989746312e-02 8.526315678281e-01 6.201989746312e-02
7.690625000000e-02 8.526649293415e-01 6.179135855739e-02 1.473350706585e-01 -6.179135855739e-02 1.473350706585e-01 -6.179135855739e-02 8.526649293415e-01 6.179135855739e-02
7.698000000000e-02 8.526981290232e-01 6.156306808207e-02 1.473018709768e-01 -6.156306808207e-02 1.473018709768e-01 -6.156306808207e-02 8.526981290232e-01 6.156306808207e-02
7.705375000000e-02 8.527311673987e-01 6.133502543999e-02 1.472688326013e-01 -6.133502543999e-02 1.472688326013e-01 -6.133502543999e-02 8.527311673987e-01 6.133502543999e-02
7.712750000000e-02 8.527640449913e-01 6.110723003585e-02 1.472359550087e-01 -6.110723003585e-02 1.472359550087e-01 -6.110723003585e-02 8.527640449913e-01 6.110723003585e-02
7.720125000000e-02 8.527967623216e-01 6.087968127625e-02 1.472032376784e-01 -6.087968127625e-02 1.472032376784e-01 -6.087968127625e-02 8.527967623216e-01 6.087968127625e-02
7.727500000000e-02 8.528293199083e-01 6.065237856962e-02 1.471706800917e-01 -6.065237856962e-02 1.471706800917e-01 -6.065237856962e-02 8.528293199083e-01 6.065237856962e-02
7.734875000000e-02 8.528617182675e-01 6.042532132629e-02 1.471382817325e-01 -6.042532132629e-02 1.471382817325e-01 -6.042532132629e-02 8.528617182675e-01 6.042532132629e-02
7.742250000000e-02 8.528939579131e-01 6.019850895842e-02 1.471060420869e-01 -6.019850895842e-02 1.471060420869e-01 -6.019850895842e-02 8.528939579131e-01 6.019850895842e-02
7.749625000000e-02 8.529260393568e-01 5.997194088001e-02 1.470739606432e-01 -5.997194088001e-02 1.470739606432e-01 -5.997194088001e-02 8.529260393568e-01 5.997194088001e-02
7.757000000000e-02 8.529579631080e-01 5.974561650692e-02 1.470420368920e-01 -5.974561650692e-02 1.470420368920e-01 -5.974561650692e-02 8.529579631080e-01 5.974561650692e-02
7.764375000000e-02 8.529897296737e-01 5.951953525683e-02 1.470102703263e-01 -5.951953525683e-02 1.470102703263e-01 -5.951953525683e-02 8.529897296737e-01 5.951953525683e-02
7.771750000000e-02 8.530213395589e-01 5.929369654927e-02 1.469786604411e-01 -5.929369654927e-02 1.469786604411e-01 -5.929369654927e-02 8.530213395589e-01 5.929369654927e-02
7.779125000000e-02 8.530527932662e-01 5.906809980555e-02 1.469472067338e-01 -5.906809980555e-02 1.469472067338e-01 -5.906809980555e-02 8.530527932662e-01 5.906809980555e-02
7.786500000000e-02 8.530840912960e-01 5.884274444884e-02 1.469159087040e-01 -5.884274444884e-02 1.469159087040e-01 -5.884274444884e-02 8.530840912960e-01 5.884274444884e-02
7.793875000000e-02 8.531152341465e-01 5.861762990408e-02 1.468847658535e-01 -5.861762990408e-02 1.468847658535e-01 -5.861762990408e-02 8.531152341465e-01 5.861762990408e-02
7.801250000000e-02 8.531462223139e-01 5.839275559803e-02 1.468537776861e-01 -5.839275559803e-02 1.468537776861e-01 -5.839275559803e-02 8.531462223139e-01 5.839275559803e-02
7.808625000000e-02 8.531770562918e-01 5.816812095924e-02 1.468229437082e-01 -5.816812095924e-02 1.468229437082e-01 -5.816812095924e-02 8.531770562918e-01 5.816812095924e-02
7.816000000000e-02 8.532077365721e-01 5.794372541805e-02 1.467922634279e-01 -5.794372541805e-02 1.467922634279e-01 -5.794372541805e-02 8.532077365721e-01 5.794372541805e-02
7.823375000000e-02 8.532382636442e-01 5.771956840659e-02 1.467617363558e-01 -5.771956840659e-02 1.467617363558e-01 -5.771956840659e-02 8.532382636442e-01 5.771956840659e-02
7.830750000000e-02 8.532686379955e-01 5.749564935875e-02 1.467313620045e-01 -5.749564935875e-02 1.467313620045e-01 -5.749564935875e-02 8.532686379955e-01 5.749564935875e-02
7.838125000000e-02 8.532988601112e-01 5.727196771019e-02 1.467011398888e-01 -5.727196771019e-02 1.467011398888e-01 -5.727196771019e-02 8.532988601112e-01 5.727196771019e-02
7.845500000000e-02 8.533289304744e-01 5.704852289835e-02 1.466710695256e-01 -5.704852289835e-02 1.466710695256e-01 -5.704852289835e-02 8.533289304744e-01 5.704852289835e-02
7.852875000000e-02 8.533588495662e-01 5.682531436241e-02 1.466411504338e-01 -5.682531436241e-02 1.466411504338e-01 -5.682531436241e-02 8.533588495662e-01 5.682531436241e-02
7.860250000000e-02 8.533886178653e-01 5.660234154330e-02 1.466113821347e-01 -5.660234154330e-02 1.466113821347e-01 -5.660234154330e-02 8.533886178653e-01 5.660234154330e-02
7.867625000000e-02 8.534182358487e-01 5.637960388372e-02 1.465817641513e-01 -5.637960388372e-02 1.465817641513e-01 -5.637960388372e-02 8.534182358487e-01 5.637960388372e-02
7.875000000000e-02 8.534477039909e-01 5.615710082806e-02 1.465522960091e-01 -5.615710082806e-02 1.465522960091e-01 -5.615710082806e-02 8.534477039909e-01 5.615710082806e-02
7.882375000000e-02 8.534770227647e-01 5.593483182248e-02 1.465229772353e-01 -5.593483182248e-02 1.465229772353e-01 -5.593483182248e-02 8.534770227647e-01 5.593483182248e-02
7.889750000000e-02 8.535061926406e-01 5.571279631486e-02 1.464938073594e-01 -5.571279631486e-02 1.464938073594e-01 -5.571279631486e-02 8.535061926406e-01 5.571279631486e-02
7.897125000000e-02 8.535352140872e-01 5.549099375478e-02 1.464647859128e-01 -5.549099375478e-02 1.464647859128e-01 -5.549099375478e-02 8.535352140872e-01 5.549099375478e-02
7.904500000000e-02 8.535640875708e-01 5.526942359356e-02 1.464359124292e-01 -5.526942359356e-02 1.464359124292e-01 -5.526942359356e-02 8.535640875708e-01 5.526942359356e-02
7.911875000000e-02 8.535928135561e-01 5.504808528420e-02 1.464071864439e-01 -5.504808528420e-02 1.464071864439e-01 -5.504808528420e-02 8.535928135561e-01 5.504808528420e-02
7.919250000000e-02 8.536213925054e-01 5.482697828141e-02 1.463786074946e-01 -5.482697828141e-02 1.463786074946e-01 -5.482697828141e-02 8.536213925054e-01 5.482697828141e-02
7.926625000000e-02 8.536498248792e-01 5.460610204162e-02 1.463501751208e-01 -5.460610204162e-02 1.463501751208e-01 -5.460610204162e-02 8.536498248792e-01 5.460610204162e-02
7.934000000000e-02 8.536781111359e-01 5.438545602290e-02 1.463218888641e-01 -5.438545602290e-02 1.463218888641e-01 -5.438545602290e-02 8.536781111359e-01 5.438545602290e-02
7.941375000000e-02 8.537062517319e-01 5.416503968504e-02 1.462937482681e-01 -5.416503968504e-02 1.462937482681e-01 -5.416503968504e-02 8.537062517319e-01 5.416503968504e-02
7.948750000000e-02 8.537342471217e-01 5.394485248950e-02 1.462657528783e-01 -5.394485248950e-02 1.462657528783e-01 -5.394485248950e-02 8.537342471217e-01 5.394485248950e-02
7.956125000000e-02 8.537620977579e-01 5.372489389940e-02 1.462379022421e-01 -5.372489389940e-02 1.462379022421e-01 -5.372489389940e-02 8.537620977579e-01 5.372489389940e-02
7.963500000000e-02 8.537898040910e-01 5.350516337952e-02 1.462101959090e-01 -5.350516337952e-02 1.462101959090e-01 -5.350516337952e-02 8.537898040910e-01 5.350516337952e-02
7.970875000000e-02 8.538173665695e-01 5.328566039633e-02 1.461826334305e-01 -5.328566039633e-02 1.461826334305e-01 -5.328566039633e-02 8.538173665695e-01 5.328566039633e-02
7.978250000000e-02 8.538447856402e-01 5.306638441792e-02 1.461552143598e-01 -5.306638441792e-02 1.461552143598e-01 -5.306638441792e-02 8.538447856402e-01 5.306638441792e-02
7.985625000000e-02 8.538720617478e-01 5.284733491403e-02 1.461279382522e-01 -5.284733491403e-02 1.461279382522e-01 -5.284733491403e-02 8.538720617478e-01 5.284733491403e-02
7.993000000000e-02 8.538991953351e-01 5.262851135606e-02 1.461008046649e-01 -5.262851135606e-02 1.461008046649e-01 -5.262851135606e-02 8.538991953351e-01 5.262851135606e-02
8.000375000000e-02 8.539261868431e-01 5.240991321704e-02 1.460738131569e-01 -5.240991321704e-02 1.460738131569e-01 -5.240991321704e-02 8.539261868431e-01 5.240991321704e-02
8.007750000000e-02 8.539530367107e-01 5.219153997160e-02 1.460469632893e-01 -5.219153997160e-02 1.460469632893e-01 -5.219153997160e-02 8.539530367107e-01 5.219153997160e-02
8.015125000000e-02 8.539797453751e-01 5.197339109604e-02 1.460202546249e-01 -5.197339109604e-02 1.460202546249e-01 -5.197339109604e-02 8.539797453751e-01 5.197339109604e-02
8.022500000000e-02 8.540063132716e-01 5.175546606824e-02 1.459936867284e-01 -5.175546606824e-02 1.459936867284e-01 -5.175546606824e-02 8.540063132716e-01 5.175546606824e-02
8.029875000000e-02 8.540327408335e-01 5.153776436771e-02 1.459672591665e-01 -5.153776436771e-02 1.459672591665e-01 -5.153776436771e-02 8.540327408335e-01 5.153776436771e-02
8.037250000000e-02 8.540590284923e-01 5.132028547556e-02 1.459409715077e-01 -5.132028547556e-02 1.459409715077e-01 -5.132028547556e-02 8.540590284923e-01 5.132028547556e-02
8.044625000000e-02 8.540851766779e-01 5.110302887451e-02 1.459148233221e-01 -5.110302887451e-02 1.459148233221e-01 -5.110302887451e-02 8.540851766779e-01 5.110302887451e-02
8.052000000000e-02 8.541111858179e-01 5.088599404886e-02 1.458888141821e-01 -5.088599404886e-02 1.458888141821e-01 -5.088599404886e-02 8.541111858179e-01 5.088599404886e-02
8.059375000000e-02 8.541370563385e-01 5.066918048450e-02 1.458629436615e-01 -5.066918048450e-02 1.458629436615e-01 -5.066918048450e-02 8.541370563385e-01 5.066918048450e-02
8.066750000000e-02 8.541627886638e-01 5.045258766893e-02 1.458372113362e-01 -5.045258766893e-02 1.458372113362e-01 -5.045258766893e-02 8.541627886638e-01 5.045258766893e-02
8.074125000000e-02 8.541883832162e-01 5.023621509118e-02 1.458116167838e-01 -5.023621509118e-02 1.458116167838e-01 -5.023621509118e-02 8.541883832162e-01 5.023621509118e-02
8.081500000000e-02 8.542138404162e-01 5.002006224189e-02 1.457861595838e-01 -5.002006224189e-02 1.457861595838e-01 -5.002006224189e-02 8.542138404162e-01 5.002006224189e-02
8.088875000000e-02 8.542391606828e-01 4.980412861327e-02 1.457608393172e-01 -4.980412861327e-02 1.457608393172e-01 -4.980412861327e-02 8.542391606828e-01 4.980412861327e-02
8.096250000000e-02 8.542643444328e-01 4.958841369905e-02 1.457356555672e-01 -4.958841369905e-02 1.457356555672e-01 -4.958841369905e-02 8.542643444328e-01 4.958841369905e-02
8.103625000000e-02 8.542893920815e-01 4.937291699456e-02 1.457106079185e-01 -4.937291699456e-02 1.457106079185e-01 -4.937291699456e-02 8.542893920815e-01 4.937291699456e-02
8.111000000000e-02 8.543143040425e-01 4.915763799666e-02 1.456856959575e-01 -4.915763799666e-02 1.456856959575e-01 -4.915763799666e-02 8.543143040425e-01 4.915763799666e-02
8.118375000000e-02 8.543390807273e-01 4.894257620375e-02 1.456609192727e-01 -4.894257620375e-02 1.456609192727e-01 -4.894257620375e-02 8.543390807273e-01 4.894257620375e-02
8.125750000000e-02 8.543637225459e-01 4.872773111577e-02 1.456362774541e-01 -4.872773111577e-02 1.456362774541e-01 -4.872773111577e-02 8.543637225459e-01 4.872773111577e-02
8.133125000000e-02 8.543882299067e-01 4.851310223421e-02 1.456117700933e-01 -4.851310223421e-02 1.456117700933e-01 -4.851310223421e-02 8.543882299067e-01 4.851310223421e-02
8.140500000000e-02 8.544126032160e-01 4.829868906206e-02 1.455873967840e-01 -4.829868906206e-02 1.455873967840e-01 -4.829868906206e-02 8.544126032160e-01 4.829868906206e-02
8.147875000000e-02 8.544368428786e-01 4.808449110387e-02 1.455631571214e-01 -4.808449110387e-02 1.455631571214e-01 -4.808449110387e-02 8.544368428786e-01 4.808449110387e-02
8.155250000000e-02 8.544609492977e-01 4.787050786566e-02 1.455390507023e-01 -4.787050786566e-02 1.455390507023e-01 -4.787050786566e-02 8.544609492977e-01 4.787050786566e-02
8.162625000000e-02 8.544849228745e-01 4.765673885501e-02 1.455150771255e-01 -4.765673885501e-02 1.455150771255e-01 -4.765673885501e-02 8.544849228745e-01 4.765673885501e-02
8.170000000000e-02 8.545087640088e-01 4.744318358096e-02 1.454912359912e-01 -4.744318358096e-02 1.454912359912e-01 -4.744318358096e-02 8.545087640088e-01 4.744318358096e-02
8.177375000000e-02 8.545324730984e-01 4.722984155410e-02 1.454675269016e-01 -4.722984155410e-02 1.454675269016e-01 -4.722984155410e-02 8.545324730984e-01 4.722984155410e-02
8.184750000000e-02 8.545560505398e-01 4.701671228647e-02 1.454439494602e-01 -4.701671228647e-02 1.454439494602e-01 -4.701671228647e-02 8.545560505398e-01 4.701671228647e-02
8.192125000000e-02 8.545794967275e-01 4.680379529162e-02 1.454205032725e-01 -4.680379529162e-02 1.454205032725e-01 -4.680379529162e-02 8.545794967275e-01 4.680379529162e-02
8.199500000000e-02 8.546028120545e-01 4.659109008460e-02 1.453971879455e-01 -4.659109008460e-02 1.453971879455e-01 -4.659109008460e-02 8.546028120545e-01 4.659109008460e-02
8.206875000000e-02 8.546259969121e-01 4.637859618191e-02 1.453740030879e-01 -4.637859618191e-02 1.453740030879e-01 -4.637859618191e-02 8.546259969121e-01 4.637859618191e-02
8.214250000000e-02 8.546490516900e-01 4.616631310155e-02 1.453509483100e-01 -4.616631310155e-02 1.453509483100e-01 -4.616631310155e-02 8.546490516900e-01 4.616631310155e-02
8.221625000000e-02 8.546719767762e-01 4.595424036297e-02 1.453280232238e-01 -4.595424036297e-02 1.453280232238e-01 -4.595424036297e-02 8.546719767762e-01 4.595424036297e-02
8.229000000000e-02 8.546947725572e-01 4.574237748710e-02 1.453052274428e-01 -4.574237748710e-02 1.453052274428e-01 -4.574237748710e-02 8.546947725572e-01 4.574237748710e-02
8.236375000000e-02 8.547174394176e-01 4.553072399632e-02 1.452825605824e-01 -4.553072399632e-02 1.452825605824e-01 -4.553072399632e-02 8.547174394176e-01 4.553072399632e-02
8.243750000000e-02 8.547399777408e-01 4.531927941446e-02 1.452600222592e-01 -4.531927941446e-02 1.452600222592e-01 -4.531927941446e-02 8.547399777408e-01 4.531927941446e-02
8.251125000000e-02 8.547623879082e-01 4.510804326681e-02 1.452376120918e-01 -4.510804326681e-02 1.452376120918e-01 -4.510804326681e-02 8.547623879082e-01 4.510804326681e-02
8.258500000000e-02 8.547846702999e-01 4.489701508010e-02 1.452153297001e-01 -4.489701508010e-02 1.452153297001e-01 -4.489701508010e-02 8.547846702999e-01 4.489701508010e-02
8.265875000000e-02 8.548068252941e-01 4.468619438249e-02 1.451931747059e-01 -4.468619438249e-02 1.451931747059e-01 -4.468619438249e-02 8.548068252941e-01 4.468619438249e-02
8.273250000000e-02 8.548288532679e-01 4.447558070359e-02 1.451711467321e-01 -4.447558070359e-02 1.451711467321e-01 -4.447558070359e-02 8.548288532679e-01 4.447558070359e-02
8.280625000000e-02 8.548507545963e-01 4.426517357441e-02 1.451492454037e-01 -4.426517357441e-02 1.451492454037e-01 -4.426517357441e-02 8.548507545963e-01 4.426517357441e-02
8.288000000000e-02 8.548725296530e-01 4.405497252742e-02 1.451274703470e-01 -4.405497252742e-02 1.451274703470e-01 -4.405497252742e-02 8.548725296530e-01 4.405497252742e-02
8.295375000000e-02 8.548941788102e-01 4.384497709647e-02 1.451058211898e-01 -4.384497709647e-02 1.451058211898e-01 -4.384497709647e-02 8.548941788102e-01 4.384497709647e-02
8.302750000000e-02 8.549157024385e-01 4.363518681686e-02 1.450842975615e-01 -4.363518681686e-02 1.450842975615e-01 -4.363518681686e-02 8.549157024385e-01 4.363518681686e-02
8.310125000000e-02 8.549371009068e-01 4.342560122528e-02 1.450628990932e-01 -4.342560122528e-02 1.450628990932e-01 -4.342560122528e-02 8.549371009068e-01 4.342560122528e-02
8.317500000000e-02 8.549583745827e-01 4.321621985981e-02 1.450416254173e-01 -4.321621985981e-02 1.450416254173e-01 -4.321621985981e-02 8.549583745827e-01 4.321621985981e-02
8.324875000000e-02 8.549795238321e-01 4.300704225995e-02 1.450204761679e-01 -4.300704225995e-02 1.450204761679e-01 -4.300704225995e-02 8.549795238321e-01 4.300704225995e-02
8.332250000000e-02 8.550005490195e-01 4.279806796659e-02 1.449994509805e-01 -4.279806796659e-02 1.449994509805e-01 -4.279806796659e-02 8.550005490195e-01 4.279806796659e-02
8.339625000000e-02 8.550214505078e-01 4.258929652200e-02 1.449785494922e-01 -4.258929652200e-02 1.449785494922e-01 -4.258929652200e-02 8.550214505078e-01 4.258929652200e-02
8.347000000000e-02 8.550422286585e-01 4.238072746984e-02 1.449577713415e-01 -4.238072746984e-02 1.449577713415e-01 -4.238072746984e-02 8.550422286585e-01 4.238072746984e-02
8.354375000000e-02 8.550628838315e-01 4.217236035513e-02 1.449371161685e-01 -4.217236035513e-02 1.449371161685e-01 -4.217236035513e-02 8.550628838315e-01 4.217236035513e-02
8.361750000000e-02 8.550834163852e-01 4.196419472431e-02 1.449165836148e-01 -4.196419472431e-02 1.449165836148e-01 -4.196419472431e-02 8.550834163852e-01 4.196419472431e-02
8.369125000000e-02 8.551038266768e-01 4.175623012513e-02 1.448961733232e-01 -4.175623012513e-02 1.448961733232e-01 -4.175623012513e-02 8.551038266768e-01 4.175623012513e-02
8.376500000000e-02 8.551241150615e-01 4.154846610675e-02 1.448758849385e-01 -4.154846610675e-02 1.448758849385e-01 -4.154846610675e-02 8.551241150615e-01 4.154846610675e-02
8.383875000000e-02 8.551442818936e-01 4.134090221967e-02 1.448557181064e-01 -4.134090221967e-02 1.448557181064e-01 -4.134090221967e-02 8.551442818936e-01 4.134090221967e-02
8.391250000000e-02 8.551643275255e-01 4.113353801575e-02 1.448356724745e-01 -4.113353801575e-02 1.448356724745e-01 -4.113353801575e-02 8.551643275255e-01 4.113353801575e-02
8.398625000000e-02 8.551842523085e-01 4.092637304819e-02 1.448157476915e-01 -4.092637304819e-02 1.448157476915e-01 -4.092637304819e-02 8.551842523085e-01 4.092637304819e-02
8.406000000000e-02 8.552040565921e-01 4.071940687155e-02 1.447959434079e-01 -4.071940687155e-02 1.447959434079e-01 -4.071940687155e-02 8.552040565921e-01 4.071940687155e-02
8.413375000000e-02 8.552237407246e-01 4.051263904171e-02 1.447762592754e-01 -4.051263904171e-02 1.447762592754e-01 -4.051263904171e-02 8.552237407246e-01 4.051263904171e-02
8.420750000000e-02 8.552433050529e-01 4.030606911591e-02 1.447566949471e-01 -4.030606911591e-02 1.447566949471e-01 -4.030606911591e-02 8.552433050529e-01 4.030606911591e-02
8.428125000000e-02 8.552627499223e-01 4.009969665270e-02 1.447372500777e-01 -4.009969665270e-02 1.447372500777e-01 -4.009969665270e-02 8.552627499223e-01 4.009969665270e-02
8.435500000000e-02 8.552820756768e-01 3.989352121198e-02 1.447179243232e-01 -3.989352121198e-02 1.447179243232e-01 -3.989352121198e-02 8.552820756768e-01 3.989352121198e-02
8.442875000000e-02 8.553012826590e-01 3.968754235495e-02 1.446987173410e-01 -3.968754235495e-02 1.446987173410e-01 -3.968754235495e-02 8.553012826590e-01 3.968754235495e-02
8.450250000000e-02 8.553203712100e-01 3.948175964412e-02 1.446796287900e-01 -3.948175964412e-02 1.446796287900e-01 -3.948175964412e-02 8.553203712100e-01 3.948175964412e-02
8.457625000000e-02 8.553393416697e-01 3.927617264335e-02 1.446606583303e-01 -3.927617264335e-02 1.446606583303e-01 -3.927617264335e-02 8.553393416697e-01 3.927617264335e-02
8.465000000000e-02 8.553581943764e-01 3.907078091777e-02 1.446418056236e-01 -3.907078091777e-02 1.446418056236e-01 -3.907078091777e-02 8.553581943764e-01 3.907078091777e-02
8.472375000000e-02 8.553769296670e-01 3.886558403383e-02 1.446230703330e-01 -3.886558403383e-02 1.446230703330e-01 -3.886558403383e-02 8.553769296670e-01 3.886558403383e-02
8.479750000000e-02 8.553955478773e-01 3.866058155928e-02 1.446044521227e-01 -3.866058155928e-02 1.446044521227e-01 -3.866058155928e-02 8.553955478773e-01 3.866058155928e-02
8.487125000000e-02 8.554140493415e-01 3.845577306316e-02 1.445859506585e-01 -3.845577306316e-02 1.445859506585e-01 -3.845577306316e-02 8.554140493415e-01 3.845577306316e-02
8.494500000000e-02 8.554324343925e-01 3.825115811580e-02 1.445675656075e-01 -3.825115811580e-02 1.445675656075e-01 -3.825115811580e-02 8.554324343925e-01 3.825115811580e-02
8.501875000000e-02 8.554507033618e-01 3.804673628881e-02 1.445492966382e-01 -3.804673628881e-02 1.445492966382e-01 -3.804673628881e-02 8.554507033618e-01 3.804673628881e-02
8.509250000000e-02 8.554688565796e-01 3.784250715509e-02 1.445311434204e-01 -3.784250715509e-02 1.445311434204e-01 -3.784250715509e-02 8.554688565796e-01 3.784250715509e-02
8.516625000000e-02 8.554868943748e-01 3.763847028881e-02 1.445131056252e-01 -3.763847028881e-02 1.445131056252e-01 -3.763847028881e-02 8.554868943748e-01 3.763847028881e-02
8.524000000000e-02 8.555048170748e-01 3.743462526541e-02 1.444951829252e-01 -3.743462526541e-02 1.444951829252e-01 -3.743462526541e-02 8.555048170748e-01 3.743462526541e-02
8.531375000000e-02 8.555226250060e-01 3.723097166161e-02 1.444773749940e-01 -3.723097166161e-02 1.444773749940e-01 -3.723097166161e-02 8.555226250060e-01 3.723097166161e-02
8.538750000000e-02 8.555403184931e-01 3.702750905537e-02 1.444596815069e-01 -3.702750905537e-02 1.444596815069e-01 -3.702750905537e-02 8.555403184931e-01 3.702750905537e-02
8.546125000000e-02 8.555578978596e-01 3.682423702594e-02 1.444421021404e-01 -3.682423702594e-02 1.444421021404e-01 -3.682423702594e-02 8.555578978596e-01 3.682423702594e-02
8.553500000000e-02 8.555753634280e-01 3.662115515379e-02 1.444246365720e-01 -3.662115515379e-02 1.444246365720e-01 -3.662115515379e-02 8.555753634280e-01 3.662115515379e-02
8.560875000000e-02 8.555927155189e-01 3.641826302066e-02 1.444072844811e-01 -3.641826302066e-02 1.444072844811e-01 -3.641826302066e-02 8.555927155189e-01 3.641826302066e-02
8.568250000000e-02 8.556099544522e-01 3.621556020953e-02 1.443900455478e-01 -3.621556020953e-02 1.443900455478e-01 -3.621556020953e-02 8.556099544522e-01 3.621556020953e-02
8.575625000000e-02 8.556270805462e-01 3.601304630463e-02 1.443729194538e-01 -3.601304630463e-02 1.443729194538e-01 -3.601304630463e-02 8.556270805462e-01 3.601304630463e-02
8.583000000000e-02 8.556440941179e-01 3.581072089140e-02 1.443559058821e-01 -3.581072089140e-02 1.443559058821e-01 -3.581072089140e-02 8.556440941179e-01 3.581072089140e-02
8.590375000000e-02 8.556609954832e-01 3.560858355655e-02 1.443390045168e-01 -3.560858355655e-02 1.443390045168e-01 -3.560858355655e-02 8.556609954832e-01 3.560858355655e-02
8.597750000000e-02 8.556777849564e-01 3.540663388798e-02 1.443222150436e-01 -3.540663388798e-02 1.443222150436e-01 -3.540663388798e-02 8.556777849564e-01 3.540663388798e-02
8.605125000000e-02 8.556944628510e-01 3.520487147485e-02 1.443055371490e-01 -3.520487147485e-02 1.443055371490e-01 -3.520487147485e-02 8.556944628510e-01 3.520487147485e-02
8.612500000000e-02 8.557110294789e-01 3.500329590750e-02 1.442889705211e-01 -3.500329590750e-02 1.442889705211e-01 -3.500329590750e-02 8.557110294789e-01 3.500329590750e-02
8.619875000000e-02 8.557274851508e-01 3.480190677753e-02 1.442725148492e-01 -3.480190677753e-02 1.442725148492e-01 -3.480190677753e-02 8.557274851508e-01 3.480190677753e-02
8.627250000000e-02 8.557438301762e-01 3.460070367771e-02 1.442561698238e-01 -3.460070367771e-02 1.442561698238e-01 -3.460070367771e-02 8.557438301762e-01 3.460070367771e-02
8.634625000000e-02 8.557600648634e-01 3.439968620204e-02 1.442399351366e-01 -3.439968620204e-02 1.442399351366e-01 -3.439968620204e-02 8.557600648634e-01 3.439968620204e-02
8.642000000000e-02 8.557761895193e-01 3.419885394572e-02 1.442238104807e-01 -3.419885394572e-02 1.442238104807e-01 -3.419885394572e-02 8.557761895193e-01 3.419885394572e-02
8.649375000000e-02 8.557922044499e-01 3.399820650514e-02 1.442077955501e-01 -3.399820650514e-02 1.442077955501e-01 -3.399820650514e-02 8.557922044499e-01 3.399820650514e-02
8.656750000000e-02 8.558081099596e-01 3.379774347790e-02 1.441918900404e-01 -3.379774347790e-02 1.441918900404e-01 -3.379774347790e-02 8.558081099596e-01 3.379774347790e-02
8.664125000000e-02 8.558239063518e-01 3.359746446276e-02 1.441760936482e-01 -3.359746446276e-02 1.441760936482e-01 -3.359746446276e-02 8.558239063518e-01 3.359746446276e-02
8.671500000000e-02 8.558395939286e-01 3.339736905970e-02 1.441604060714e-01 -3.339736905970e-02 1.441604060714e-01 -3.339736905970e-02 8.558395939286e-01 3.339736905970e-02
8.678875000000e-02 8.558551729909e-01 3.319745686987e-02 1.441448270091e-01 -3.319745686987e-02 1.441448270091e-01 -3.319745686987e-02 8.558551729909e-01 3.319745686987e-02
8.686250000000e-02 8.558706438385e-01 3.299772749558e-02 1.441293561615e-01 -3.299772749558e-02 1.441293561615e-01 -3.299772749558e-02 8.558706438385e-01 3.299772749558e-02
8.693625000000e-02 8.558860067700e-01 3.279818054034e-02 1.441139932300e-01 -3.279818054034e-02 1.441139932300e-01 -3.279818054034e-02 8.558860067700e-01 3.279818054034e-02
8.701000000000e-02 8.559012620826e-01 3.259881560882e-02 1.440987379174e-01 -3.259881560882e-02 1.440987379174e-01 -3.259881560882e-02 8.559012620826e-01 3.259881560882e-02
8.708375000000e-02 8.559164100725e-01 3.239963230684e-02 1.440835899275e-01 -3.239963230684e-02 1.440835899275e-01 -3.239963230684e-02 8.559164100725e-01 3.239963230684e-02
8.715750000000e-02 8.559314510347e-01 3.220063024141e-02 1.440685489653e-01 -3.220063024141e-02 1.440685489653e-01 -3.220063024141e-02 8.559314510347e-01 3.220063024141e-02
8.723125000000e-02 8.559463852630e-01 3.200180902068e-02 1.440536147370e-01 -3.200180902068e-02 1.440536147370e-01 -3.200180902068e-02 8.559463852630e-01 3.200180902068e-02
8.730500000000e-02 8.559612130501e-01 3.180316825396e-02 1.440387869499e-01 -3.180316825396e-02 1.440387869499e-01 -3.180316825396e-02 8.559612130501e-01 3.180316825396e-02
8.737875000000e-02 8.559759346875e-01 3.160470755169e-02 1.440240653125e-01 -3.160470755169e-02 1.440240653125e-01 -3.160470755169e-02 8.559759346875e-01 3.160470755169e-02
8.745250000000e-02 8.559905504654e-01 3.140642652548e-02 1.440094495346e-01 -3.140642652548e-02 1.440094495346e-01 -3.140642652548e-02 8.559905504654e-01 3.140642652548e-02
8.752625000000e-02 8.560050606732e-01 3.120832478808e-02 1.439949393268e-01 -3.120832478808e-02 1.439949393268e-01 -3.120832478808e-02 8.560050606732e-01 3.120832478808e-02
8.760000000000e-02 8.560194655987e-01 3.101040195337e-02 1.439805344013e-01 -3.101040195337e-02 1.439805344013e-01 -3.101040195337e-02 8.560194655987e-01 3.101040195337e-02
8.767375000000e-02 8.560337655289e-01 3.081265763635e-02 1.439662344711e-01 -3.081265763635e-02 1.439662344711e-01 -3.081265763635e-02 8.560337655289e-01 3.081265763635e-02
8.774750000000e-02 8.560479607496e-01 3.061509145317e-02 1.439520392504e-01 -3.061509145317e-02 1.439520392504e-01 -3.061509145317e-02 8.560479607496e-01 3.061509145317e-02
8.782125000000e-02 8.560620515454e-01 3.041770302111e-02 1.439379484546e-01 -3.041770302111e-02 1.439379484546e-01 -3.041770302111e-02 8.560620515454e-01 3.041770302111e-02
8.789500000000e-02 8.560760381998e-01 3.022049195855e-02 1.439239618002e-01 -3.022049195855e-02 1.439239618002e-01 -3.022049195855e-02 8.560760381998e-01 3.022049195855e-02
8.796875000000e-02 8.560899209953e-01 3.002345788500e-02 1.439100790047e-01 -3.002345788500e-02 1.439100790047e-01 -3.002345788500e-02 8.560899209953e-01 3.002345788500e-02
8.804250000000e-02 8.561037002131e-01 2.982660042110e-02 1.438962997869e-01 -2.982660042110e-02 1.438962997869e-01 -2.982660042110e-02 8.561037002131e-01 2.982660042110e-02
8.811625000000e-02 8.561173761334e-01 2.962991918856e-02 1.438826238666e-01 -2.962991918856e-02 1.438826238666e-01 -2.962991918856e-02 8.561173761334e-01 2.962991918856e-02
8.819000000000e-02 8.561309490352e-01 2.943341381024e-02 1.438690509648e-01 -2.943341381024e-02 1.438690509648e-01 -2.943341381024e-02 8.561309490352e-01 2.943341381024e-02
8.826375000000e-02 8.561444191966e-01 2.923708391008e-02 1.438555808034e-01 -2.923708391008e-02 1.438555808034e-01 -2.923708391008e-02 8.561444191966e-01 2.923708391008e-02
8.833750000000e-02 8.561577868945e-01 2.904092911313e-02 1.438422131055e-01 -2.904092911313e-02 1.438422131055e-01 -2.904092911313e-02 8.561577868945e-01 2.904092911313e-02
8.841125000000e-02 8.561710524047e-01 2.884494904551e-02 1.438289475953e-01 -2.884494904551e-02 1.438289475953e-01 -2.884494904551e-02 8.561710524047e-01 2.884494904551e-02
8.848500000000e-02 8.561842160018e-01 2.864914333446e-02 1.438157839982e-01 -2.864914333446e-02 1.438157839982e-01 -2.864914333446e-02 8.561842160018e-01 2.864914333446e-02
8.855875000000e-02 8.561972779595e-01 2.845351160830e-02 1.438027220405e-01 -2.845351160830e-02 1.438027220405e-01 -2.845351160830e-02 8.561972779595e-01 2.845351160830e-02
8.863250000000e-02 8.562102385505e-01 2.825805349642e-02 1.437897614495e-01 -2.825805349642e-02 1.437897614495e-01 -2.825805349642e-02 8.562102385505e-01 2.825805349642e-02
8.870625000000e-02 8.562230980463e-01 2.806276862932e-02 1.437769019537e-01 -2.806276862932e-02 1.437769019537e-01 -2.806276862932e-02 8.562230980463e-01 2.806276862932e-02
8.878000000000e-02 8.562358567172e-01 2.786765663855e-02 1.437641432828e-01 -2.786765663855e-02 1.437641432828e-01 -2.786765663855e-02 8.562358567172e-01 2.786765663855e-02
8.885375000000e-02 8.562485148327e-01 2.767271715673e-02 1.437514851673e-01 -2.767271715673e-02 1.437514851673e-01 -2.767271715673e-02 8.562485148327e-01 2.767271715673e-02
8.892750000000e-02 8.562610726611e-01 2.747794981758e-02 1.437389273389e-01 -2.747794981758e-02 1.437389273389e-01 -2.747794981758e-02 8.562610726611e-01 2.747794981758e-02
8.900125000000e-02 8.562735304698e-01 2.728335425585e-02 1.437264695302e-01 -2.728335425585e-02 1.437264695302e-01 -2.728335425585e-02 8.562735304698e-01 2.728335425585e-02
8.907500000000e-02 8.562858885250e-01 2.708893010738e-02 1.437141114750e-01 -2.708893010738e-02 1.437141114750e-01 -2.708893010738e-02 8.562858885250e-01 2.708893010738e-02
8.914875000000e-02 8.562981470920e-01 2.689467700904e-02 1.437018529080e-01 -2.689467700904e-02 1.437018529080e-01 -2.689467700904e-02 8.562981470920e-01 2.689467700904e-02
8.922250000000e-02 8.563103064348e-01 2.670059459879e-02 1.436896935652e-01 -2.670059459879e-02 1.436896935652e-01 -2.670059459879e-02 8.563103064348e-01 2.670059459879e-02
8.929625000000e-02 8.563223668168e-01 2.650668251561e-02 1.436776331832e-01 -2.650668251561e-02 1.436776331832e-01 -2.650668251561e-02 8.563223668168e-01 2.650668251561e-02
8.937000000000e-02 8.563343285000e-01 2.631294039954e-02 1.436656715000e-01 -2.631294039954e-02 1.436656715000e-01 -2.631294039954e-02 8.563343285000e-01 2.631294039954e-02
8.944375000000e-02 8.563461917456e-01 2.611936789166e-02 1.436538082544e-01 -2.611936789166e-02 1.436538082544e-01 -2.611936789166e-02 8.563461917456e-01 2.611936789166e-02
8.951750000000e-02 8.563579568137e-01 2.592596463410e-02 1.436420431863e-01 -2.592596463410e-02 1.436420431863e-01 -2.592596463410e-02 8.563579568137e-01 2.592596463410e-02
8.959125000000e-02 8.563696239634e-01 2.573273027001e-02 1.436303760366e-01 -2.573273027001e-02 1.436303760366e-01 -2.573273027001e-02 8.563696239634e-01 2.573273027001e-02
8.966500000000e-02 8.563811934528e-01 2.553966444359e-02 1.436188065472e-01 -2.553966444359e-02 1.436188065472e-01 -2.553966444359e-02 8.563811934528e-01 2.553966444359e-02
8.973875000000e-02 8.563926655391e-01 2.534676680007e-02 1.436073344609e-01 -2.534676680007e-02 1.436073344609e-01 -2.534676680007e-02 8.563926655391e-01 2.534676680007e-02
8.981250000000e-02 8.564040404783e-01 2.515403698568e-02 1.435959595217e-01 -2.515403698568e-02 1.435959595217e-01 -2.515403698568e-02 8.564040404783e-01 2.515403698568e-02
8.988625000000e-02 8.564153185257e-01 2.496147464771e-02 1.435846814743e-01 -2.496147464771e-02 1.435846814743e-01 -2.496147464771e-02 8.564153185257e-01 2.496147464771e-02
8.996000000000e-02 8.564264999352e-01 2.476907943443e-02 1.435735000648e-01 -2.476907943443e-02 1.435735000648e-01 -2.476907943443e-02 8.564264999352e-01 2.476907943443e-02
9.003375000000e-02 8.564375849602e-01 2.457685099516e-02 1.435624150398e-01 -2.457685099516e-02 1.435624150398e-01 -2.457685099516e-02 8.564375849602e-01 2.457685099516e-02
9.010750000000e-02 8.564485738528e-01 2.438478898022e-02 1.435514261472e-01 -2.438478898022e-02 1.435514261472e-01 -2.438478898022e-02 8.564485738528e-01 2.438478898022e-02
9.018125000000e-02 8.564594668642e-01 2.419289304093e-02 1.435405331358e-01 -2.419289304093e-02 1.435405331358e-01 -2.419289304093e-02 8.564594668642e-01 2.419289304093e-02
9.025500000000e-02 8.564702642447e-01 2.400116282962e-02 1.435297357553e-01 -2.400116282962e-02 1.435297357553e-01 -2.400116282962e-02 8.564702642447e-01 2.400116282962e-02
9.032875000000e-02 8.564809662436e-01 2.380959799963e-02 1.435190337564e-01 -2.380959799963e-02 1.435190337564e-01 -2.380959799963e-02 8.564809662436e-01 2.380959799963e-02
9.040250000000e-02 8.564915731093e-01 2.361819820529e-02 1.435084268907e-01 -2.361819820529e-02 1.435084268907e-01 -2.361819820529e-02 8.564915731093e-01 2.361819820529e-02
9.047625000000e-02 8.565020850890e-01 2.342696310193e-02 1.434979149110e-01 -2.342696310193e-02 1.434979149110e-01 -2.342696310193e-02 8.565020850890e-01 2.342696310193e-02
9.055000000000e-02 8.565125024293e-01 2.323589234587e-02 1.434874975707e-01 -2.323589234587e-02 1.434874975707e-01 -2.323589234587e-02 8.565125024293e-01 2.323589234587e-02
9.062375000000e-02 8.565228253757e-01 2.304498559441e-02 1.434771746243e-01 -2.304498559441e-02 1.434771746243e-01 -2.304498559441e-02 8.565228253757e-01 2.304498559441e-02
9.069750000000e-02 8.565330541726e-01 2.285424250584e-02 1.434669458274e-01 -2.285424250584e-02 1.434669458274e-01 -2.285424250584e-02 8.565330541726e-01 2.285424250584e-02
9.077125000000e-02 8.565431890639e-01 2.266366273945e-02 1.434568109361e-01 -2.266366273945e-02 1.434568109361e-01 -2.266366273945e-02 8.565431890639e-01 2.266366273945e-02
9.084500000000e-02 8.565532302920e-01 2.247324595548e-02 1.434467697080e-01 -2.247324595548e-02 1.434467697080e-01 -2.247324595548e-02 8.565532302920e-01 2.247324595548e-02
9.091875000000e-02 8.565631780988e-01 2.228299181516e-02 1.434368219012e-01 -2.228299181516e-02 1.434368219012e-01 -2.228299181516e-02 8.565631780988e-01 2.228299181516e-02
9.099250000000e-02 8.565730327252e-01 2.209289998069e-02 1.434269672748e-01 -2.209289998069e-02 1.434269672748e-01 -2.209289998069e-02 8.565730327252e-01 2.209289998069e-02
9.106625000000e-02 8.565827944110e-01 2.190297011524e-02 1.434172055890e-01 -2.190297011524e-02 1.434172055890e-01 -2.190297011524e-02 8.565827944110e-01 2.190297011524e-02
9.114000000000e-02 8.565924633954e-01 2.171320188294e-02 1.434075366046e-01 -2.171320188294e-02 1.434075366046e-01 -2.171320188294e-02 8.565924633954e-01 2.171320188294e-02
9.121375000000e-02 8.566020399163e-01 2.152359494888e-02 1.433979600837e-01 -2.152359494888e-02 1.433979600837e-01 -2.152359494888e-02 8.566020399163e-01 2.152359494888e-02
9.128750000000e-02 8.566115242110e-01 2.133414897912e-02 1.433884757890e-01 -2.133414897912e-02 1.433884757890e-01 -2.133414897912e-02 8.566115242110e-01 2.133414897912e-02
9.136125000000e-02 8.566209165157e-01 2.114486364066e-02 1.433790834843e-01 -2.114486364066e-02 1.433790834843e-01 -2.114486364066e-02 8.566209165157e-01 2.114486364066e-02
9.143500000000e-02 8.566302170660e-01 2.095573860148e-02 1.433697829340e-01 -2.095573860148e-02 1.433697829340e-01 -2.095573860148e-02 8.566302170660e-01 2.095573860148e-02
9.150875000000e-02 8.566394260962e-01 2.076677353046e-02 1.433605739038e-01 -2.076677353046e-02 1.433605739038e-01 -2.076677353046e-02 8.566394260962e-01 2.076677353046e-02
9.158250000000e-02 8.566485438401e-01 2.057796809748e-02 1.433514561599e-01 -2.057796809748e-02 1.433514561599e-01 -2.057796809748e-02 8.566485438401e-01 2.057796809748e-02
9.165625000000e-02 8.566575705303e-01 2.038932197332e-02 1.433424294697e-01 -2.038932197332e-02 1.433424294697e-01 -2.038932197332e-02 8.566575705303e-01 2.038932197332e-02
9.173000000000e-02 8.566665063987e-01 2.020083482973e-02 1.433334936013e-01 -2.020083482973e-02 1.433334936013e-01 -2.020083482973e-02 8.566665063987e-01 2.020083482973e-02
9.180375000000e-02 8.566753516763e-01 2.001250633937e-02 1.433246483237e-01 -2.001250633937e-02 1.433246483237e-01 -2.001250633937e-02 8.566753516763e-01 2.001250633937e-02
9.187750000000e-02 8.566841065932e-01 1.982433617586e-02 1.433158934068e-01 -1.982433617586e-02 1.433158934068e-01 -1.982433617586e-02 8.566841065932e-01 1.982433617586e-02
9.195125000000e-02 8.566927713786e-01 1.963632401373e-02 1.433072286214e-01 -1.963632401373e-02 1.433072286214e-01 -1.963632401373e-02 8.566927713786e-01 1.963632401373e-02
9.202500000000e-02 8.567013462609e-01 1.944846952843e-02 1.432986537391e-01 -1.944846952843e-02 1.432986537391e-01 -1.944846952843e-02 8.567013462609e-01 1.944846952843e-02
9.209875000000e-02 8.567098314676e-01 1.926077239637e-02 1.432901685324e-01 -1.926077239637e-02 1.432901685324e-01 -1.926077239637e-02 8.567098314676e-01 1.926077239637e-02
9.217250000000e-02 8.567182272253e-01 1.907323229483e-02 1.432817727747e-01 -1.907323229483e-02 1.432817727747e-01 -1.907323229483e-02 8.567182272253e-01 1.907323229483e-02
9.224625000000e-02 8.567265337600e-01 1.888584890205e-02 1.432734662400e-01 -1.888584890205e-02 1.432734662400e-01 -1.888584890205e-02 8.567265337600e-01 1.888584890205e-02
9.232000000000e-02 8.567347512964e-01 1.869862189717e-02 1.432652487036e-01 -1.869862189717e-02 1.432652487036e-01 -1.869862189717e-02 8.567347512964e-01 1.869862189717e-02
9.239375000000e-02 8.567428800588e-01 1.851155096023e-02 1.432571199412e-01 -1.851155096023e-02 1.432571199412e-01 -1.851155096023e-02 8.567428800588e-01 1.851155096023e-02
9.246750000000e-02 8.567509202704e-01 1.832463577220e-02 1.432490797296e-01 -1.832463577220e-02 1.432490797296e-01 -1.832463577220e-02 8.567509202704e-01 1.832463577220e-02
9.254125000000e-02 8.567588721536e-01 1.813787601492e-02 1.432411278464e-01 -1.813787601492e-02 1.432411278464e-01 -1.813787601492e-02 8.567588721536e-01 1.813787601492e-02
9.261500000000e-02 8.567667359300e-01 1.795127137118e-02 1.432332640700e-01 -1.795127137118e-02 1.432332640700e-01 -1.795127137118e-02 8.567667359300e-01 1.795127137118e-02
9.268875000000e-02 8.567745118204e-01 1.776482152463e-02 1.432254881796e-01 -1.776482152463e-02 1.432254881796e-01 -1.776482152463e-02 8.567745118204e-01 1.776482152463e-02
9.276250000000e-02 8.567822000448e-01 1.757852615983e-02 1.432177999552e-01 -1.757852615983e-02 1.432177999552e-01 -1.757852615983e-02 8.567822000448e-01 1.757852615983e-02
9.283625000000e-02 8.567898008222e-01 1.739238496223e-02 1.432101991778e-01 -1.739238496223e-02 1.432101991778e-01 -1.739238496223e-02 8.567898008222e-01 1.739238496223e-02
9.291000000000e-02 8.567973143709e-01 1.720639761818e-02 1.432026856291e-01 -1.720639761818e-02 1.432026856291e-01 -1.720639761818e-02 8.567973143709e-01 1.720639761818e-02
9.298375000000e-02 8.568047409085e-01 1.702056381491e-02 1.431952590915e-01 -1.702056381491e-02 1.431952590915e-01 -1.702056381491e-02 8.568047409085e-01 1.702056381491e-02
9.305750000000e-02 8.568120806516e-01 1.683488324052e-02 1.431879193484e-01 -1.683488324052e-02 1.431879193484e-01 -1.683488324052e-02 8.568120806516e-01 1.683488324052e-02
9.313125000000e-02 8.568193338160e-01 1.664935558402e-02 1.431806661840e-01 -1.664935558402e-02 1.431806661840e-01 -1.664935558402e-02 8.568193338160e-01 1.664935558402e-02
9.320500000000e-02 8.568265006169e-01 1.646398053528e-02 1.431734993831e-01 -1.646398053528e-02 1.431734993831e-01 -1.646398053528e-02 8.568265006169e-01 1.646398053528e-02
9.327875000000e-02 8.568335812685e-01 1.627875778504e-02 1.431664187315e-01 -1.627875778504e-02 1.431664187315e-01 -1.627875778504e-02 8.568335812685e-01 1.627875778504e-02
9.335250000000e-02 8.568405759842e-01 1.609368702493e-02 1.431594240158e-01 -1.609368702493e-02 1.431594240158e-01 -1.609368702493e-02 8.568405759842e-01 1.609368702493e-02
9.342625000000e-02 8.568474849768e-01 1.590876794743e-02 1.431525150232e-01 -1.590876794743e-02 1.431525150232e-01 -1.590876794743e-02 8.568474849768e-01 1.590876794743e-02
9.350000000000e-02 8.568543084581e-01 1.572400024591e-02 1.431456915419e-01 -1.572400024591e-02 1.431456915419e-01 -1.572400024591e-02 8.568543084581e-01 1.572400024591e-02
9.357375000000e-02 8.568610466392e-01 1.553938361458e-02 1.431389533608e-01 -1.553938361458e-02 1.431389533608e-01 -1.553938361458e-02 8.568610466392e-01 1.553938361458e-02
9.364750000000e-02 8.568676997304e-01 1.535491774852e-02 1.431323002696e-01 -1.535491774852e-02 1.431323002696e-01 -1.535491774852e-02 8.568676997304e-01 1.535491774852e-02
9.372125000000e-02 8.568742679413e-01 1.517060234366e-02 1.431257320587e-01 -1.517060234366e-02 1.431257320587e-01 -1.517060234366e-02 8.568742679413e-01 1.517060234366e-02
9.379500000000e-02 8.568807514806e-01 1.498643709682e-02 1.431192485194e-01 -1.498643709682e-02 1.431192485194e-01 -1.498643709682e-02 8.568807514806e-01 1.498643709682e-02
9.386875000000e-02 8.568871505563e-01 1.480242170562e-02 1.431128494437e-01 -1.480242170562e-02 1.431128494437e-01 -1.480242170562e-02 8.568871505563e-01 1.480242170562e-02
9.394250000000e-02 8.568934653756e-01 1.461855586856e-02 1.431065346244e-01 -1.461855586856e-02 1.431065346244e-01 -1.461855586856e-02 8.568934653756e-01 1.461855586856e-02
9.401625000000e-02 8.568996961450e-01 1.443483928499e-02 1.431003038550e-01 -1.443483928499e-02 1.431003038550e-01 -1.443483928499e-02 8.568996961450e-01 1.443483928499e-02
9.409000000000e-02 8.569058430702e-01 1.425127165508e-02 1.430941569298e-01 -1.425127165508e-02 1.430941569298e-01 -1.425127165508e-02 8.569058430702e-01 1.425127165508e-02
9.416375000000e-02 8.569119063560e-01 1.406785267987e-02 1.430880936440e-01 -1.406785267987e-02 1.430880936440e-01 -1.406785267987e-02 8.569119063560e-01 1.406785267987e-02
9.423750000000e-02 8.569178862068e-01 1.388458206122e-02 1.430821137932e-01 -1.388458206122e-02 1.430821137932e-01 -1.388458206122e-02 8.569178862068e-01 1.388458206122e-02
9.431125000000e-02 8.569237828258e-01 1.370145950182e-02 1.430762171742e-01 -1.370145950182e-02 1.430762171742e-01 -1.370145950182e-02 8.569237828258e-01 1.370145950182e-02
9.438500000000e-02 8.569295964159e-01 1.351848470522e-02 1.430704035841e-01 -1.351848470522e-02 1.430704035841e-01 -1.351848470522e-02 8.569295964159e-01 1.351848470522e-02
9.445875000000e-02 8.569353271788e-01 1.333565737575e-02 1.430646728212e-01 -1.333565737575e-02 1.430646728212e-01 -1.333565737575e-02 8.569353271788e-01 1.333565737575e-02
9.453250000000e-02 8.569409753159e-01 1.315297721863e-02 1.430590246841e-01 -1.315297721863e-02 1.430590246841e-01 -1.315297721863e-02 8.569409753159e-01 1.315297721863e-02
9.460625000000e-02 8.569465410275e-01 1.297044393985e-02 1.430534589725e-01 -1.297044393985e-02 1.430534589725e-01 -1.297044393985e-02 8.569465410275e-01 1.297044393985e-02
9.468000000000e-02 8.569520245134e-01 1.278805724625e-02 1.430479754866e-01 -1.278805724625e-02 1.430479754866e-01 -1.278805724625e-02 8.569520245134e-01 1.278805724625e-02
9.475375000000e-02 8.569574259726e-01 1.260581684549e-02 1.430425740274e-01 -1.260581684549e-02 1.430425740274e-01 -1.260581684549e-02 8.569574259726e-01 1.260581684549e-02
9.482750000000e-02 8.569627456033e-01 1.242372244603e-02 1.430372543967e-01 -1.242372244603e-02 1.430372543967e-01 -1.242372244603e-02 8.569627456033e-01 1.242372244603e-02
9.490125000000e-02 8.569679836031e-01 1.224177375715e-02 1.430320163969e-01 -1.224177375715e-02 1.430320163969e-01 -1.224177375715e-02 8.569679836031e-01 1.224177375715e-02
9.497500000000e-02 8.569731401688e-01 1.205997048895e-02 1.430268598312e-01 -1.205997048895e-02 1.430268598312e-01 -1.205997048895e-02 8.569731401688e-01 1.205997048895e-02
9.504875000000e-02 8.569782154964e-01 1.187831235232e-02 1.430217845036e-01 -1.187831235232e-02 1.430217845036e-01 -1.187831235232e-02 8.569782154964e-01 1.187831235232e-02
9.512250000000e-02 8.569832097814e-01 1.169679905897e-02 1.430167902186e-01 -1.169679905897e-02 1.430167902186e-01 -1.169679905897e-02 8.569832097814e-01 1.169679905897e-02
9.519625000000e-02 8.569881232184e-01 1.151543032140e-02 1.430118767816e-01 -1.151543032140e-02 1.430118767816e-01 -1.151543032140e-02 8.569881232184e-01 1.151543032140e-02
9.527000000000e-02 8.569929560014e-01 1.133420585294e-02 1.430070439986e-01 -1.133420585294e-02 1.430070439986e-01 -1.133420585294e-02 8.569929560014e-01 1.133420585294e-02
9.534375000000e-02 8.569977083236e-01 1.115312536767e-02 1.430022916764e-01 -1.115312536767e-02 1.430022916764e-01 -1.115312536767e-02 8.569977083236e-01 1.115312536767e-02
9.541750000000e-02 8.570023803776e-01 1.097218858051e-02 1.429976196224e-01 -1.097218858051e-02 1.429976196224e-01 -1.097218858051e-02 8.570023803776e-01 1.097218858051e-02
9.549125000000e-02 8.570069723551e-01 1.079139520714e-02 1.429930276449e-01 -1.079139520714e-02 1.429930276449e-01 -1.079139520714e-02 8.570069723551e-01 1.079139520714e-02
9.556500000000e-02 8.570114844475e-01 1.061074496404e-02 1.429885155525e-01 -1.061074496404e-02 1.429885155525e-01 -1.061074496404e-02 8.570114844475e-01 1.061074496404e-02
9.563875000000e-02 8.570159168450e-01 1.043023756848e-02 1.429840831550e-01 -1.043023756848e-02 1.429840831550e-01 -1.043023756848e-02 8.570159168450e-01 1.043023756848e-02
9.571250000000e-02 8.570202697376e-01 1.024987273852e-02 1.429797302624e-01 -1.024987273852e-02 1.429797302624e-01 -1.024987273852e-02 8.570202697376e-01 1.024987273852e-02
9.578625000000e-02 8.570245433142e-01 1.006965019298e-02 1.429754566858e-01 -1.006965019298e-02 1.429754566858e-01 -1.006965019298e-02 8.570245433142e-01 1.006965019298e-02
9.586000000000e-02 8.570287377632e-01 9.889569651491e-03 1.429712622368e-01 -9.889569651491e-03 1.429712622368e-01 -9.889569651491e-03 8.570287377632e-01 9.889569651491e-03
9.593375000000e-02 8.570328532724e-01 9.709630834429e-03 1.429671467276e-01 -9.709630834429e-03 1.429671467276e-01 -9.709630834429e-03 8.570328532724e-01 9.709630834429e-03
9.600750000000e-02 8.570368900289e-01 9.529833462962e-03 1.429631099711e-01 -9.529833462962e-03 1.429631099711e-01 -9.529833462962e-03 8.570368900289e-01 9.529833462962e-03
9.608125000000e-02 8.570408482188e-01 9.350177259025e-03 1.429591517812e-01 -9.350177259025e-03 1.429591517812e-01 -9.350177259025e-03 8.570408482188e-01 9.350177259025e-03
9.615500000000e-02 8.570447280280e-01 9.170661945321e-03 1.429552719720e-01 -9.170661945321e-03 1.429552719720e-01 -9.170661945321e-03 8.570447280280e-01 9.170661945321e-03
9.622875000000e-02 8.570485296415e-01 8.991287245321e-03 1.429514703585e-01 -8.991287245321e-03 1.429514703585e-01 -8.991287245321e-03 8.570485296415e-01 8.991287245321e-03
9.630250000000e-02 8.570522532436e-01 8.812052883259e-03 1.429477467564e-01 -8.812052883259e-03 1.429477467564e-01 -8.812052883259e-03 8.570522532436e-01 8.812052883259e-03
9.637625000000e-02 8.570558990180e-01 8.632958584130e-03 1.429441009820e-01 -8.632958584130e-03 1.429441009820e-01 -8.632958584130e-03 8.570558990180e-01 8.632958584130e-03
9.645000000000e-02 8.570594671476e-01 8.454004073688e-03 1.429405328524e-01 -8.454004073688e-03 1.429405328524e-01 -8.454004073688e-03 8.570594671476e-01 8.454004073688e-03
9.652375000000e-02 8.570629578150e-01 8.275189078445e-03 1.429370421850e-01 -8.275189078445e-03 1.429370421850e-01 -8.275189078445e-03 8.570629578150e-01 8.275189078445e-03
9.659750000000e-02 8.570663712017e-01 8.096513325664e-03 1.429336287983e-01 -8.096513325664e-03 1.429336287983e-01 -8.096513325664e-03 8.570663712017e-01 8.096513325664e-03
9.667125000000e-02 8.570697074889e-01 7.917976543362e-03 1.429302925111e-01 -7.917976543362e-03 1.429302925111e-01 -7.917976543362e-03 8.570697074889e-01 7.917976543362e-03
9.674500000000e-02 8.570729668569e-01 7.739578460303e-03 1.429270331431e-01 -7.739578460303e-03 1.429270331431e-01 -7.739578460303e-03 8.570729668569e-01 7.739578460303e-03
9.681875000000e-02 8.570761494855e-01 7.561318805999e-03 1.429238505145e-01 -7.561318805999e-03 1.429238505145e-01 -7.561318805999e-03 8.570761494855e-01 7.561318805999e-03
9.689250000000e-02 8.570792555539e-01 7.383197310705e-03 1.429207444461e-01 -7.383197310705e-03 1.429207444461e-01 -7.383197310705e-03 8.570792555539e-01 7.383197310705e-03
9.696625000000e-02 8.570822852404e-01 7.205213705418e-03 1.429177147596e-01 -7.205213705418e-03 1.429177147596e-01 -7.205213705418e-03 8.570822852404e-01 7.205213705418e-03
9.704000000000e-02 8.570852387230e-01 7.027367721873e-03 1.429147612770e-01 -7.027367721873e-03 1.429147612770e-01 -7.027367721873e-03 8.570852387230e-01 7.027367721873e-03
9.711375000000e-02 8.570881161789e-01 6.849659092545e-03 1.429118838211e-01 -6.849659092545e-03 1.429118838211e-01 -6.849659092545e-03 8.570881161789e-01 6.849659092545e-03
9.718750000000e-02 8.570909177845e-01 6.672087550640e-03 1.429090822155e-01 -6.672087550640e-03 1.429090822155e-01 -6.672087550640e-03 8.570909177845e-01 6.672087550640e-03
9.726125000000e-02 8.570936437160e-01 6.494652830097e-03 1.429063562840e-01 -6.494652830097e-03 1.429063562840e-01 -6.494652830097e-03 8.570936437160e-01 6.494652830097e-03
9.733500000000e-02 8.570962941484e-01 6.317354665586e-03 1.429037058516e-01 -6.317354665586e-03 1.429037058516e-01 -6.317354665586e-03 8.570962941484e-01 6.317354665586e-03
9.740875000000e-02 8.570988692567e-01 6.140192792501e-03 1.429011307433e-01 -6.140192792501e-03 1.429011307433e-01 -6.140192792501e-03 8.570988692567e-01 6.140192792501e-03
9.748250000000e-02 8.571013692147e-01 5.963166946965e-03 1.428986307853e-01 -5.963166946965e-03 1.428986307853e-01 -5.963166946965e-03 8.571013692147e-01 5.963166946965e-03
9.755625000000e-02 8.571037941960e-01 5.786276865820e-03 1.428962058040e-01 -5.786276865820e-03 1.428962058040e-01 -5.786276865820e-03 8.571037941960e-01 5.786276865820e-03
9.763000000000e-02 8.571061443734e-01 5.609522286629e-03 1.428938556266e-01 -5.609522286629e-03 1.428938556266e-01 -5.609522286629e-03 8.571061443734e-01 5.609522286629e-03
9.770375000000e-02 8.571084199191e-01 5.432902947675e-03 1.428915800809e-01 -5.432902947675e-03 1.428915800809e-01 -5.432902947675e-03 8.571084199191e-01 5.432902947675e-03
9.777750000000e-02 8.571106210047e-01 5.256418587953e-03 1.428893789953e-01 -5.256418587953e-03 1.428893789953e-01 -5.256418587953e-03 8.571106210047e-01 5.256418587953e-03
9.785125000000e-02 8.571127478013e-01 5.080068947173e-03 1.428872521987e-01 -5.080068947173e-03 1.428872521987e-01 -5.080068947173e-03 8.571127478013e-01 5.080068947173e-03
9.792500000000e-02 8.571148004791e-01 4.903853765756e-03 1.428851995209e-01 -4.903853765756e-03 1.428851995209e-01 -4.903853765756e-03 8.571148004791e-01 4.903853765756e-03
9.799875000000e-02 8.571167792080e-01 4.727772784830e-03 1.428832207920e-01 -4.727772784830e-03 1.428832207920e-01 -4.727772784830e-03 8.571167792080e-01 4.727772784830e-03
9.807250000000e-02 8.571186841572e-01 4.551825746231e-03 1.428813158428e-01 -4.551825746231e-03 1.428813158428e-01 -4.551825746231e-03 8.571186841572e-01 4.551825746231e-03
9.814625000000e-02 8.571205154953e-01 4.376012392498e-03 1.428794845047e-01 -4.376012392498e-03 1.428794845047e-01 -4.376012392498e-03 8.571205154953e-01 4.376012392498e-03
9.822000000000e-02 8.571222733902e-01 4.200332466871e-03 1.428777266098e-01 -4.200332466871e-03 1.428777266098e-01 -4.200332466871e-03 8.571222733902e-01 4.200332466871e-03
9.829375000000e-02 8.571239580094e-01 4.024785713290e-03 1.428760419906e-01 -4.024785713290e-03 1.428760419906e-01 -4.024785713290e-03 8.571239580094e-01 4.024785713290e-03
9.836750000000e-02 8.571255695197e-01 3.849371876393e-03 1.428744304803e-01 -3.849371876393e-03 1.428744304803e-01 -3.849371876393e-03 8.571255695197e-01 3.849371876393e-03
9.844125000000e-02 8.571271080873e-01 3.674090701511e-03 1.428728919127e-01 -3.674090701511e-03 1.428728919127e-01 -3.674090701511e-03 8.571271080873e-01 3.674090701511e-03
9.851500000000e-02 8.571285738777e-01 3.498941934668e-03 1.428714261223e-01 -3.498941934668e-03 1.428714261223e-01 -3.498941934668e-03 8.571285738777e-01 3.498941934668e-03
9.858875000000e-02 8.571299670562e-01 3.323925322579e-03 1.428700329438e-01 -3.323925322579e-03 1.428700329438e-01 -3.323925322579e-03 8.571299670562e-01 3.323925322579e-03
9.866250000000e-02 8.571312877871e-01 3.149040612647e-03 1.428687122129e-01 -3.149040612647e-03 1.428687122129e-01 -3.149040612647e-03 8.571312877871e-01 3.149040612647e-03
9.873625000000e-02 8.571325362344e-01 2.974287552960e-03 1.428674637656e-01 -2.974287552960e-03 1.428674637656e-01 -2.974287552960e-03 8.571325362344e-01 2.974287552960e-03
9.881000000000e-02 8.571337125613e-01 2.799665892291e-03 1.428662874387e-01 -2.799665892291e-03 1.428662874387e-01 -2.799665892291e-03 8.571337125613e-01 2.799665892291e-03
9.888375000000e-02 8.571348169307e-01 2.625175380093e-03 1.428651830693e-01 -2.625175380093e-03 1.428651830693e-01 -2.625175380093e-03 8.571348169307e-01 2.625175380093e-03
9.895750000000e-02 8.571358495047e-01 2.450815766498e-03 1.428641504953e-01 -2.450815766498e-03 1.428641504953e-01 -2.450815766498e-03 8.571358495047e-01 2.450815766498e-03
9.903125000000e-02 8.571368104448e-01 2.276586802317e-03 1.428631895552e-01 -2.276586802317e-03 1.428631895552e-01 -2.276586802317e-03 8.571368104448e-01 2.276586802317e-03
9.910500000000e-02 8.571376999122e-01 2.102488239035e-03 1.428623000878e-01 -2.102488239035e-03 1.428623000878e-01 -2.102488239035e-03 8.571376999122e-01 2.102488239035e-03
9.917875000000e-02 8.571385180674e-01 1.928519828808e-03 1.428614819326e-01 -1.928519828808e-03 1.428614819326e-01 -1.928519828808e-03 8.571385180674e-01 1.928519828808e-03
9.925250000000e-02 8.571392650702e-01 1.754681324465e-03 1.428607349298e-01 -1.754681324465e-03 1.428607349298e-01 -1.754681324465e-03 8.571392650702e-01 1.754681324465e-03
9.932625000000e-02 8.571399410800e-01 1.580972479502e-03 1.428600589200e-01 -1.580972479502e-03 1.428600589200e-01 -1.580972479502e-03 8.571399410800e-01 1.580972479502e-03
9.940000000000e-02 8.571405462556e-01 1.407393048081e-03 1.428594537444e-01 -1.407393048081e-03 1.428594537444e-01 -1.407393048081e-03 8.571405462556e-01 1.407393048081e-03
9.947375000000e-02 8.571410807552e-01 1.233942785028e-03 1.428589192448e-01 -1.233942785028e-03 1.428589192448e-01 -1.233942785028e-03 8.571410807552e-01 1.233942785028e-03
9.954750000000e-02 8.571415447367e-01 1.060621445832e-03 1.428584552633e-01 -1.060621445832e-03 1.428584552633e-01 -1.060621445832e-03 8.571415447367e-01 1.060621445832e-03
9.962125000000e-02 8.571419383570e-01 8.874287866407e-04 1.428580616430e-01 -8.874287866407e-04 1.428580616430e-01 -8.874287866407e-04 8.571419383570e-01 8.874287866407e-04
9.969500000000e-02 8.571422617729e-01 7.143645642599e-04 1.428577382271e-01 -7.143645642599e-04 1.428577382271e-01 -7.143645642599e-04 8.571422617729e-01 7.143645642599e-04
9.976875000000e-02 8.571425151404e-01 5.414285361508e-04 1.428574848596e-01 -5.414285361508e-04 1.428574848596e-01 -5.414285361508e-04 8.571425151404e-01 5.414285361508e-04
9.984250000000e-02 8.571426986149e-01 3.686204604282e-04 1.428573013851e-01 -3.686204604282e-04 1.428573013851e-01 -3.686204604282e-04 8.571426986149e-01 3.686204604282e-04
9.991625000000e-02 8.571428123516e-01 1.959400958580e-04 1.428571876484e-01 -1.959400958580e-04 1.428571876484e-01 -1.959400958580e-04 8.571428123516e-01 1.959400958580e-04
9.999000000000e-02 8.571428565047e-01 2.338720185542e-05 1.428571434953e-01 -2.338720185542e-05 1.428571434953e-01 -2.338720185542e-05 8.571428565047e-01 2.338720185542e-05
1.000637500000e-01 8.571428312283e-01 -1.490384615170e-04 1.428571687717e-01 1.490384615170e-04 1.428571687717e-01 1.490384615170e-04 8.571428312283e-01 -1.490384615170e-04
1.001375000000e-01 8.571427366757e-01 -3.213371335519e-04 1.428572633243e-01 3.213371335519e-04 1.428572633243e-01 3.213371335519e-04 8.571427366757e-01 -3.213371335519e-04
1.002112500000e-01 8.571425729997e-01 -4.935090528987e-04 1.428574270003e-01 4.935090528987e-04 1.428574270003e-01 4.935090528987e-04 8.571425729997e-01 -4.935090528987e-04
1.002850000000e-01 8.571423403527e-01 -6.655544575659e-04 1.428576596473e-01 6.655544575659e-04 1.428576596473e-01 6.655544575659e-04 8.571423403527e-01 -6.655544575659e-04
1.003587500000e-01 8.571420388864e-01 -8.374735849232e-04 1.428579611136e-01 8.374735849232e-04 1.428579611136e-01 8.374735849232e-04 8.571420388864e-01 -8.374735849232e-04
1.004325000000e-01 8.571416687521e-01 -1.009266671703e-03 1.428583312479e-01 1.009266671703e-03 1.428583312479e-01 1.009266671703e-03 8.571416687521e-01 -1.009266671703e-03
1.005062500000e-01 8.571412301006e-01 -1.180933954004e-03 1.428587698994e-01 1.180933954004e-03 1.428587698994e-01 1.180933954004e-03 8.571412301006e-01 -1.180933954004e-03
1.005800000000e-01 8.571407230820e-01 -1.352475667291e-03 1.428592769180e-01 1.352475667291e-03 1.428592769180e-01 1.352475667291e-03 8.571407230820e-01 -1.352475667291e-03
1.006537500000e-01 8.571401478462e-01 -1.523892046398e-03 1.428598521538e-01 1.523892046398e-03 1.428598521538e-01 1.523892046398e-03 8.571401478462e-01 -1.523892046398e-03
1.007275000000e-01 8.571395045422e-01 -1.695183325530e-03 1.428604954578e-01 1.695183325530e-03 1.428604954578e-01 1.695183325530e-03 8.571395045422e-01 -1.695183325530e-03
1.008012500000e-01 8.571387933187e-01 -1.866349738268e-03 1.428612066813e-01 1.866349738268e-03 1.428612066813e-01 1.866349738268e-03 8.571387933187e-01 -1.866349738268e-03
1.008750000000e-01 8.571380143239e-01 -2.037391517564e-03 1.428619856761e-01 2.037391517564e-03 1.428619856761e-01 2.037391517564e-03 8.571380143239e-01 -2.037391517564e-03
1.009487500000e-01 8.571371677056e-01 -2.208308895750e-03 1.428628322944e-01 2.208308895750e-03 1.428628322944e-01 2.208308895750e-03 8.571371677056e-01 -2.208308895750e-03
1.010225000000e-01 8.571362536107e-01 -2.379102104536e-03 1.428637463893e-01 2.379102104536e-03 1.428637463893e-01 2.379102104536e-03 8.571362536107e-01 -2.379102104536e-03
1.010962500000e-01 8.571352721860e-01 -2.549771375015e-03 1.428647278140e-01 2.549771375015e-03 1.428647278140e-01 2.549771375015e-03 8.571352721860e-01 -2.549771375015e-03
1.011700000000e-01 8.571342235776e-01 -2.720316937662e-03 1.428657764224e-01 2.720316937662e-03 1.428657764224e-01 2.720316937662e-03 8.571342235776e-01 -2.720316937662e-03
1.012437500000e-01 8.571331079312e-01 -2.890739022335e-03 1.428668920688e-01 2.890739022335e-03 1.428668920688e-01 2.890739022335e-03 8.571331079312e-01 -2.890739022335e-03
1.013175000000e-01 8.571319253919e-01 -3.061037858284e-03 1.428680746081e-01 3.061037858284e-03 1.428680746081e-01 3.061037858284e-03 8.571319253919e-01 -3.061037858284e-03
1.013912500000e-01 8.571306761043e-01 -3.231213674142e-03 1.428693238957e-01 3.231213674142e-03 1.428693238957e-01 3.231213674142e-03 8.571306761043e-01 -3.231213674142e-03
1.014650000000e-01 8.571293602127e-01 -3.401266697939e-03 1.428706397873e-01 3.401266697939e-03 1.428706397873e-01 3.401266697939e-03 8.571293602127e-01 -3.401266697939e-03
1.015387500000e-01 8.571279778606e-01 -3.571197157094e-03 1.428720221394e-01 3.571197157094e-03 1.428720221394e-01 3.571197157094e-03 8.571279778606e-01 -3.571197157094e-03
1.016125000000e-01 8.571265291912e-01 -3.741005278421e-03 1.428734708088e-01 3.741005278421e-03 1.428734708088e-01 3.741005278421e-03 8.571265291912e-01 -3.741005278421e-03
1.016862500000e-01 8.571250143474e-01 -3.910691288133e-03 1.428749856526e-01 3.910691288133e-03 1.428749856526e-01 3.910691288133e-03 8.571250143474e-01 -3.910691288133e-03
1.017600000000e-01 8.571234334711e-01 -4.080255411840e-03 1.428765665289e-01 4.080255411840e-03 1.428765665289e-01 4.080255411840e-03 8.571234334711e-01 -4.080255411840e-03
1.018337500000e-01 8.571217867042e-01 -4.249697874553e-03 1.428782132958e-01 4.249697874553e-03 1.428782132958e-01 4.249697874553e-03 8.571217867042e-01 -4.249697874553e-03
1.019075000000e-01 8.571200741879e-01 -4.419018900685e-03 1.428799258121e-01 4.419018900685e-03 1.428799258121e-01 4.419018900685e-03 8.571200741879e-01 -4.419018900685e-03
1.019812500000e-01 8.571182960629e-01 -4.588218714055e-03 1.428817039371e-01 4.588218714055e-03 1.428817039371e-01 4.588218714055e-03 8.571182960629e-01 -4.588218714055e-03
1.020550000000e-01 8.571164524696e-01 -4.757297537886e-03 1.428835475304e-01 4.757297537886e-03 1.428835475304e-01 4.757297537886e-03 8.571164524696e-01 -4.757297537886e-03
1.021287500000e-01 8.571145435477e-01 -4.926255594810e-03 1.428854564523e-01 4.926255594810e-03 1.428854564523e-01 4.926255594810e-03 8.571145435477e-01 -4.926255594810e-03
1.022025000000e-01 8.571125694366e-01 -5.095093106871e-03 1.428874305634e-01 5.095093106871e-03 1.428874305634e-01 5.095093106871e-03 8.571125694366e-01 -5.095093106871e-03
1.022762500000e-01 8.571105302750e-01 -5.263810295521e-03 1.428894697250e-01 5.263810295521e-03 1.428894697250e-01 5.263810295521e-03 8.571105302750e-01 -5.263810295521e-03
1.023500000000e-01 8.571084262015e-01 -5.432407381630e-03 1.428915737985e-01 5.432407381630e-03 1.428915737985e-01 5.432407381630e-03 8.571084262015e-01 -5.432407381630e-03
1.024237500000e-01 8.571062573539e-01 -5.600884585480e-03 1.428937426461e-01 5.600884585480e-03 1.428937426461e-01 5.600884585480e-03 8.571062573539e-01 -5.600884585480e-03
1.024975000000e-01 8.571040238697e-01 -5.769242126772e-03 1.428959761303e-01 5.769242126772e-03 1.428959761303e-01 5.769242126772e-03 8.571040238697e-01 -5.769242126772e-03
1.025712500000e-01 8.571017258858e-01 -5.937480224627e-03 1.428982741142e-01 5.937480224627e-03 1.428982741142e-01 5.937480224627e-03 8.571017258858e-01 -5.937480224627e-03
1.026450000000e-01 8.570993635388e-01 -6.105599097585e-03 1.429006364612e-01 6.105599097585e-03 1.429006364612e-01 6.105599097585e-03 8.570993635388e-01 -6.105599097585e-03
1.027187500000e-01 8.570969369648e-01 -6.273598963612e-03 1.429030630352e-01 6.273598963612e-03 1.429030630352e-01 6.273598963612e-03 8.570969369648e-01 -6.273598963612e-03
1.027925000000e-01 8.570944462994e-01 -6.441480040097e-03 1.429055537006e-01 6.441480040097e-03 1.429055537006e-01 6.441480040097e-03 8.570944462994e-01 -6.441480040097e-03
1.028662500000e-01 8.570918916776e-01 -6.609242543854e-03 1.429081083224e-01 6.609242543854e-03 1.429081083224e-01 6.609242543854e-03 8.570918916776e-01 -6.609242543854e-03
1.029400000000e-01 8.570892732343e-01 -6.776886691127e-03 1.429107267657e-01 6.776886691127e-03 1.429107267657e-01 6.776886691127e-03 8.570892732343e-01 -6.776886691127e-03
1.030137500000e-01 8.570865911037e-01 -6.944412697592e-03 1.429134088963e-01 6.944412697592e-03 1.429134088963e-01 6.944412697592e-03 8.570865911037e-01 -6.944412697592e-03
1.030875000000e-01 8.570838454195e-01 -7.111820778353e-03 1.429161545805e-01 7.111820778353e-03 1.429161545805e-01 7.111820778353e-03 8.570838454195e-01 -7.111820778353e-03
1.031612500000e-01 8.570810363151e-01 -7.279111147952e-03 1.429189636849e-01 7.279111147952e-03 1.429189636849e-01 7.279111147952e-03 8.570810363151e-01 -7.279111147952e-03
1.032350000000e-01 8.570781639234e-01 -7.446284020362e-03 1.429218360766e-01 7.446284020362e-03 1.429218360766e-01 7.446284020362e-03 8.570781639234e-01 -7.446284020362e-03
1.033087500000e-01 8.570752283769e-01 -7.613339608998e-03 1.429247716231e-01 7.613339608998e-03 1.429247716231e-01 7.613339608998e-03 8.570752283769e-01 -7.613339608998e-03
1.033825000000e-01 8.570722298076e-01 -7.780278126710e-03 1.429277701924e-01 7.780278126710e-03 1.429277701924e-01 7.780278126710e-03 8.570722298076e-01 -7.780278126710e-03
1.034562500000e-01 8.570691683470e-01 -7.947099785791e-03 1.429308316530e-01 7.947099785791e-03 1.429308316530e-01 7.947099785791e-03 8.570691683470e-01 -7.947099785791e-03
1.035300000000e-01 8.570660441262e-01 -8.113804797977e-03 1.429339558738e-01 8.113804797977e-03 1.429339558738e-01 8.113804797977e-03 8.570660441262e-01 -8.113804797977e-03
1.036037500000e-01 8.570628572760e-01 -8.280393374446e-03 1.429371427240e-01 8.280393374446e-03 1.429371427240e-01 8.280393374446e-03 8.570628572760e-01 -8.280393374446e-03
1.036775000000e-01 8.570596079267e-01 -8.446865725825e-03 1.429403920733e-01 8.446865725825e-03 1.429403920733e-01 8.446865725825e-03 8.570596079267e-01 -8.446865725825e-03
1.037512500000e-01 8.570562962079e-01 -8.613222062187e-03 1.429437037921e-01 8.613222062187e-03 1.429437037921e-01 8.613222062187e-03 8.570562962079e-01 -8.613222062187e-03
1.038250000000e-01 8.570529222492e-01 -8.779462593054e-03 1.429470777508e-01 8.779462593054e-03 1.429470777508e-01 8.779462593054e-03 8.570529222492e-01 -8.779462593054e-03
1.038987500000e-01 8.570494861795e-01 -8.945587527401e-03 1.429505138205e-01 8.945587527401e-03 1.429505138205e-01 8.945587527401e-03 8.570494861795e-01 -8.945587527401e-03
1.039725000000e-01 8.570459881272e-01 -9.111597073655e-03 1.429540118728e-01 9.111597073655e-03 1.429540118728e-01 9.111597073655e-03 8.570459881272e-01 -9.111597073655e-03
1.040462500000e-01 8.570424282206e-01 -9.277491439698e-03 1.429575717794e-01 9.277491439698e-03 1.429575717794e-01 9.277491439698e-03 8.570424282206e-01 -9.277491439698e-03
1.041200000000e-01 8.570388065872e-01 -9.443270832868e-03 1.429611934128e-01 9.443270832868e-03 1.429611934128e-01 9.443270832868e-03 8.570388065872e-01 -9.443270832868e-03
1.041937500000e-01 8.570351233544e-01 -9.608935459962e-03 1.429648766456e-01 9.608935459962e-03 1.429648766456e-01 9.608935459962e-03 8.570351233544e-01 -9.608935459962e-03
1.042675000000e-01 8.570313786490e-01 -9.774485527235e-03 1.429686213510e-01 9.774485527235e-03 1.429686213510e-01 9.774485527235e-03 8.570313786490e-01 -9.774485527235e-03
1.043412500000e-01 8.570275725973e-01 -9.939921240404e-03 1.429724274027e-01 9.939921240404e-03 1.429724274027e-01 9.939921240404e-03 8.570275725973e-01 -9.939921240404e-03
1.044150000000e-01 8.570237053253e-01 -1.010524280465e-02 1.429762946747e-01 1.010524280465e-02 1.429762946747e-01 1.010524280465e-02 8.570237053253e-01 -1.010524280465e-02
1.044887500000e-01 8.570197769588e-01 -1.027045042462e-02 1.429802230412e-01 1.027045042462e-02 1.429802230412e-01 1.027045042462e-02 8.570197769588e-01 -1.027045042462e-02
1.045625000000e-01 8.570157876227e-01 -1.043554430443e-02 1.429842123773e-01 1.043554430443e-02 1.429842123773e-01 1.043554430443e-02 8.570157876227e-01 -1.043554430443e-02
1.046362500000e-01 8.570117374418e-01 -1.060052464765e-02 1.429882625582e-01 1.060052464765e-02 1.429882625582e-01 1.060052464765e-02 8.570117374418e-01 -1.060052464765e-02
1.047100000000e-01 8.570076265405e-01 -1.076539165734e-02 1.429923734595e-01 1.076539165734e-02 1.429923734595e-01 1.076539165734e-02 8.570076265405e-01 -1.076539165734e-02
1.047837500000e-01 8.570034550427e-01 -1.093014553601e-02 1.429965449573e-01 1.093014553601e-02 1.429965449573e-01 1.093014553601e-02 8.570034550427e-01 -1.093014553601e-02
1.048575000000e-01 8.569992230720e-01 -1.109478648566e-02 1.430007769280e-01 1.109478648566e-02 1.430007769280e-01 1.109478648566e-02 8.569992230720e-01 -1.109478648566e-02
1.049312500000e-01 8.569949307513e-01 -1.125931470777e-02 1.430050692487e-01 1.125931470777e-02 1.430050692487e-01 1.125931470777e-02 8.569949307513e-01 -1.125931470777e-02
1.050050000000e-01 8.569905782035e-01 -1.142373040327e-02 1.430094217965e-01 1.142373040327e-02 1.430094217965e-01 1.142373040327e-02 8.569905782035e-01 -1.142373040327e-02
1.050787500000e-01 8.569861655507e-01 -1.158803377259e-02 1.430138344493e-01 1.158803377259e-02 1.430138344493e-01 1.158803377259e-02 8.569861655507e-01 -1.158803377259e-02
1.051525000000e-01 8.569816929150e-01 -1.175222501563e-02 1.430183070850e-01 1.175222501563e-02 1.430183070850e-01 1.175222501563e-02 8.569816929150e-01 -1.175222501563e-02
1.052262500000e-01 8.569771604178e-01 -1.191630433178e-02 1.430228395822e-01 1.191630433178e-02 1.430228395822e-01 1.191630433178e-02 8.569771604178e-01 -1.191630433178e-02
1.053000000000e-01 8.569725681802e-01 -1.208027191990e-02 1.430274318198e-01 1.208027191990e-02 1.430274318198e-01 1.208027191990e-02 8.569725681802e-01 -1.208027191990e-02
1.053737500000e-01 8.569679163229e-01 -1.224412797835e-02 1.430320836771e-01 1.224412797835e-02 1.430320836771e-01 1.224412797835e-02 8.569679163229e-01 -1.224412797835e-02
1.054475000000e-01 8.569632049662e-01 -1.240787270497e-02 1.430367950338e-01 1.240787270497e-02 1.430367950338e-01 1.240787270497e-02 8.569632049662e-01 -1.240787270497e-02
1.055212500000e-01 8.569584342301e-01 -1.257150629707e-02 1.430415657699e-01 1.257150629707e-02 1.430415657699e-01 1.257150629707e-02 8.569584342301e-01 -1.257150629707e-02
1.055950000000e-01 8.569536042340e-01 -1.273502895148e-02 1.430463957660e-01 1.273502895148e-02 1.430463957660e-01 1.273502895148e-02 8.569536042340e-01 -1.273502895148e-02
1.056687500000e-01 8.569487150970e-01 -1.289844086450e-02 1.430512849030e-01 1.289844086450e-02 1.430512849030e-01 1.289844086450e-02 8.569487150970e-01 -1.289844086450e-02
1.057425000000e-01 8.569437669380e-01 -1.306174223192e-02 1.430562330620e-01 1.306174223192e-02 1.430562330620e-01 1.306174223192e-02 8.569437669380e-01 -1.306174223192e-02
1.058162500000e-01 8.569387598752e-01 -1.322493324904e-02 1.430612401248e-01 1.322493324904e-02 1.430612401248e-01 1.322493324904e-02 8.569387598752e-01 -1.322493324904e-02
1.058900000000e-01 8.569336940266e-01 -1.338801411065e-02 1.430663059734e-01 1.338801411065e-02 1.430663059734e-01 1.338801411065e-02 8.569336940266e-01 -1.338801411065e-02
1.059637500000e-01 8.569285695099e-01 -1.355098501102e-02 1.430714304901e-01 1.355098501102e-02 1.430714304901e-01 1.355098501102e-02 8.569285695099e-01 -1.355098501102e-02
1.060375000000e-01 8.569233864422e-01 -1.371384614395e-02 1.430766135578e-01 1.371384614395e-02 1.430766135578e-01 1.371384614395e-02 8.569233864422e-01 -1.371384614395e-02
1.061112500000e-01 8.569181449403e-01 -1.387659770272e-02 1.430818550597e-01 1.387659770272e-02 1.430818550597e-01 1.387659770272e-02 8.569181449403e-01 -1.387659770272e-02
1.061850000000e-01 8.569128451206e-01 -1.403923988011e-02 1.430871548794e-01 1.403923988011e-02 1.430871548794e-01 1.403923988011e-02 8.569128451206e-01 -1.403923988011e-02
1.062587500000e-01 8.569074870993e-01 -1.420177286840e-02 1.430925129007e-01 1.420177286840e-02 1.430925129007e-01 1.420177286840e-02 8.569074870993e-01 -1.420177286840e-02
1.063325000000e-01 8.569020709919e-01 -1.436419685939e-02 1.430979290081e-01 1.436419685939e-02 1.430979290081e-01 1.436419685939e-02 8.569020709919e-01 -1.436419685939e-02
1.064062500000e-01 8.568965969139e-01 -1.452651204439e-02 1.431034030861e-01 1.452651204439e-02 1.431034030861e-01 1.452651204439e-02 8.568965969139e-01 -1.452651204439e-02
1.064800000000e-01 8.568910649801e-01 -1.468871861419e-02 1.431089350199e-01 1.468871861419e-02 1.431089350199e-01 1.468871861419e-02 8.568910649801e-01 -1.468871861419e-02
1.065537500000e-01 8.568854753051e-01 -1.485081675912e-02 1.431145246949e-01 1.485081675912e-02 1.431145246949e-01 1.485081675912e-02 8.568854753051e-01 -1.485081675912e-02
1.066275000000e-01 8.568798280030e-01 -1.501280666899e-02 1.431201719970e-01 1.501280666899e-02 1.431201719970e-01 1.501280666899e-02 8.568798280030e-01 -1.501280666899e-02
1.067012500000e-01 8.568741231878e-01 -1.517468853315e-02 1.431258768122e-01 1.517468853315e-02 1.431258768122e-01 1.517468853315e-02 8.568741231878e-01 -1.517468853315e-02
1.067750000000e-01 8.568683609729e-01 -1.533646254046e-02 1.431316390271e-01 1.533646254046e-02 1.431316390271e-01 1.533646254046e-02 8.568683609729e-01 -1.533646254046e-02
1.068487500000e-01 8.568625414713e-01 -1.549812887927e-02 1.431374585287e-01 1.549812887927e-02 1.431374585287e-01 1.549812887927e-02 8.568625414713e-01 -1.549812887927e-02
1.069225000000e-01 8.568566647957e-01 -1.565968773748e-02 1.431433352043e-01 1.565968773748e-02 1.431433352043e-01 1.565968773748e-02 8.568566647957e-01 -1.565968773748e-02
1.069962500000e-01 8.568507310586e-01 -1.582113930249e-02 1.431492689414e-01 1.582113930249e-02 1.431492689414e-01 1.582113930249e-02 8.568507310586e-01 -1.582113930249e-02
1.070700000000e-01 8.568447403719e-01 -1.598248376123e-02 1.431552596281e-01 1.598248376123e-02 1.431552596281e-01 1.598248376123e-02 8.568447403719e-01 -1.598248376123e-02
1.071437500000e-01 8.568386928473e-01 -1.614372130013e-02 1.431613071527e-01 1.614372130013e-02 1.431613071527e-01 1.614372130013e-02 8.568386928473e-01 -1.614372130013e-02
1.072175000000e-01 8.568325885960e-01 -1.630485210516e-02 1.431674114040e-01 1.630485210516e-02 1.431674114040e-01 1.630485210516e-02 8.568325885960e-01 -1.630485210516e-02
1.072912500000e-01 8.568264277289e-01 -1.646587636182e-02 1.431735722711e-01 1.646587636182e-02 1.431735722711e-01 1.646587636182e-02 8.568264277289e-01 -1.646587636182e-02
1.073650000000e-01 8.568202103567e-01 -1.662679425512e-02 1.431797896433e-01 1.662679425512e-02 1.431797896433e-01 1.662679425512e-02 8.568202103567e-01 -1.662679425512e-02
1.074387500000e-01 8.568139365894e-01 -1.678760596961e-02 1.431860634106e-01 1.678760596961e-02 1.431860634106e-01 1.678760596961e-02 8.568139365894e-01 -1.678760596961e-02
1.075125000000e-01 8.568076065371e-01 -1.694831168936e-02 1.431923934629e-01 1.694831168936e-02 1.431923934629e-01 1.694831168936e-02 8.568076065371e-01 -1.694831168936e-02
1.075862500000e-01 8.568012203091e-01 -1.710891159796e-02 1.431987796909e-01 1.710891159796e-02 1.431987796909e-01 1.710891159796e-02 8.568012203091e-01 -1.710891159796e-02
1.076600000000e-01 8.567947780146e-01 -1.726940587857e-02 1.432052219854e-01 1.726940587857e-02 1.432052219854e-01 1.726940587857e-02 8.567947780146e-01 -1.726940587857e-02
1.077337500000e-01 8.567882797625e-01 -1.742979471384e-02 1.432117202375e-01 1.742979471384e-02 1.432117202375e-01 1.742979471384e-02 8.567882797625e-01 -1.742979471384e-02
1.078075000000e-01 8.567817256611e-01 -1.759007828597e-02 1.432182743389e-01 1.759007828597e-02 1.432182743389e-01 1.759007828597e-02 8.567817256611e-01 -1.759007828597e-02
1.078812500000e-01 8.567751158187e-01 -1.775025677670e-02 1.432248841813e-01 1.775025677670e-02 1.432248841813e-01 1.775025677670e-02 8.567751158187e-01 -1.775025677670e-02
1.079550000000e-01 8.567684503428e-01 -1.791033036731e-02 1.432315496572e-01 1.791033036731e-02 1.432315496572e-01 1.791033036731e-02 8.567684503428e-01 -1.791033036731e-02
1.080287500000e-01 8.567617293411e-01 -1.807029923860e-02 1.432382706589e-01 1.807029923860e-02 1.432382706589e-01 1.807029923860e-02 8.567617293411e-01 -1.807029923860e-02
1.081025000000e-01 8.567549529204e-01 -1.823016357093e-02 1.432450470796e-01 1.823016357093e-02 1.432450470796e-01 1.823016357093e-02 8.567549529204e-01 -1.823016357093e-02
1.081762500000e-01 8.567481211877e-01 -1.838992354419e-02 1.432518788123e-01 1.838992354419e-02 1.432518788123e-01 1.838992354419e-02 8.567481211877e-01 -1.838992354419e-02
1.082500000000e-01 8.567412342492e-01 -1.854957933782e-02 1.432587657508e-01 1.854957933782e-02 1.432587657508e-01 1.854957933782e-02 8.567412342492e-01 -1.854957933782e-02
1.083237500000e-01 8.567342922111e-01 -1.870913113080e-02 1.432657077889e-01 1.870913113080e-02 1.432657077889e-01 1.870913113080e-02 8.567342922111e-01 -1.870913113080e-02
1.083975000000e-01 8.567272951790e-01 -1.886857910166e-02 1.432727048210e-01 1.886857910166e-02 1.432727048210e-01 1.886857910166e-02 8.567272951790e-01 -1.886857910166e-02
1.084712500000e-01 8.567202432583e-01 -1.902792342846e-02 1.432797567417e-01 1.902792342846e-02 1.432797567417e-01 1.902792342846e-02 8.567202432583e-01 -1.902792342846e-02
1.085450000000e-01 8.567131365541e-01 -1.918716428883e-02 1.432868634459e-01 1.918716428883e-02 1.432868634459e-01 1.918716428883e-02 8.567131365541e-01 -1.918716428883e-02
1.086187500000e-01 8.567059751711e-01 -1.934630185993e-02 1.432940248289e-01 1.934630185993e-02 1.432940248289e-01 1.934630185993e-02 8.567059751711e-01 -1.934630185993e-02
1.086925000000e-01 8.566987592137e-01 -1.950533631850e-02 1.433012407863e-01 1.950533631850e-02 1.433012407863e-01 1.950533631850e-02 8.566987592137e-01 -1.950533631850e-02
1.087662500000e-01 8.566914887859e-01 -1.966426784080e-02 1.433085112141e-01 1.966426784080e-02 1.433085112141e-01 1.966426784080e-02 8.566914887859e-01 -1.966426784080e-02
1.088400000000e-01 8.566841639915e-01 -1.982309660266e-02 1.433158360085e-01 1.982309660266e-02 1.433158360085e-01 1.982309660266e-02 8.566841639915e-01 -1.982309660266e-02
1.089137500000e-01 8.566767849338e-01 -1.998182277946e-02 1.433232150662e-01 1.998182277946e-02 1.433232150662e-01 1.998182277946e-02 8.566767849338e-01 -1.998182277946e-02
1.089875000000e-01 8.566693517160e-01 -2.014044654615e-02 1.433306482840e-01 2.014044654615e-02 1.433306482840e-01 2.014044654615e-02 8.566693517160e-01 -2.014044654615e-02
1.090612500000e-01 8.566618644407e-01 -2.029896807721e-02 1.433381355593e-01 2.029896807721e-02 1.433381355593e-01 2.029896807721e-02 8.566618644407e-01 -2.029896807721e-02
1.091350000000e-01 8.566543232104e-01 -2.045738754671e-02 1.433456767896e-01 2.045738754671e-02 1.433456767896e-01 2.045738754671e-02 8.566543232104e-01 -2.045738754671e-02
1.092087500000e-01 8.566467281273e-01 -2.061570512826e-02 1.433532718727e-01 2.061570512826e-02 1.433532718727e-01 2.061570512826e-02 8.566467281273e-01 -2.061570512826e-02
1.092825000000e-01 8.566390792930e-01 -2.077392099504e-02 1.433609207070e-01 2.077392099504e-02 1.433609207070e-01 2.077392099504e-02 8.566390792930e-01 -2.077392099504e-02
1.093562500000e-01 8.566313768090e-01 -2.093203531979e-02 1.433686231910e-01 2.093203531979e-02 1.433686231910e-01 2.093203531979e-02 8.566313768090e-01 -2.093203531979e-02
1.094300000000e-01 8.566236207764e-01 -2.109004827481e-02 1.433763792236e-01 2.109004827481e-02 1.433763792236e-01 2.109004827481e-02 8.566236207764e-01 -2.109004827481e-02
1.095037500000e-01 8.566158112962e-01 -2.124796003198e-02 1.433841887038e-01 2.124796003198e-02 1.433841887038e-01 2.124796003198e-02 8.566158112962e-01 -2.124796003198e-02
1.095775000000e-01 8.566079484687e-01 -2.140577076272e-02 1.433920515313e-01 2.140577076272e-02 1.433920515313e-01 2.140577076272e-02 8.566079484687e-01 -2.140577076272e-02
1.096512500000e-01 8.566000323943e-01 -2.156348063806e-02 1.433999676057e-01 2.156348063806e-02 1.433999676057e-01 2.156348063806e-02 8.566000323943e-01 -2.156348063806e-02
1.097250000000e-01 8.565920631726e-01 -2.172108982857e-02 1.434079368274e-01 2.172108982857e-02 1.434079368274e-01 2.172108982857e-02 8.565920631726e-01 -2.172108982857e-02
1.097987500000e-01 8.565840409034e-01 -2.187859850438e-02 1.434159590966e-01 2.187859850438e-02 1.434159590966e-01 2.187859850438e-02 8.565840409034e-01 -2.187859850438e-02
1.098725000000e-01 8.565759656858e-01 -2.203600683523e-02 1.434240343142e-01 2.203600683523e-02 1.434240343142e-01 2.203600683523e-02 8.565759656858e-01 -2.203600683523e-02
1.099462500000e-01 8.565678376189e-01 -2.219331499040e-02 1.434321623811e-01 2.219331499040e-02 1.434321623811e-01 2.219331499040e-02 8.565678376189e-01 -2.219331499040e-02
1.100200000000e-01 8.565596568011e-01 -2.235052313875e-02 1.434403431989e-01 2.235052313875e-02 1.434403431989e-01 2.235052313875e-02 8.565596568011e-01 -2.235052313875e-02
1.100937500000e-01 8.565514233309e-01 -2.250763144875e-02 1.434485766691e-01 2.250763144875e-02 1.434485766691e-01 2.250763144875e-02 8.565514233309e-01 -2.250763144875e-02
1.101675000000e-01 8.565431373063e-01 -2.266464008839e-02 1.434568626937e-01 2.266464008839e-02 1.434568626937e-01 2.266464008839e-02 8.565431373063e-01 -2.266464008839e-02
1.102412500000e-01 8.565347988249e-01 -2.282154922529e-02 1.434652011751e-01 2.282154922529e-02 1.434652011751e-01 2.282154922529e-02 8.565347988249e-01 -2.282154922529e-02
1.103150000000e-01 8.565264079842e-01 -2.297835902662e-02 1.434735920158e-01 2.297835902662e-02 1.434735920158e-01 2.297835902662e-02 8.565264079842e-01 -2.297835902662e-02
1.103887500000e-01 8.565179648813e-01 -2.313506965914e-02 1.434820351187e-01 2.313506965914e-02 1.434820351187e-01 2.313506965914e-02 8.565179648813e-01 -2.313506965914e-02
1.104625000000e-01 8.565094696130e-01 -2.329168128919e-02 1.434905303870e-01 2.329168128919e-02 1.434905303870e-01 2.329168128919e-02 8.565094696130e-01 -2.329168128919e-02
1.105362500000e-01 8.565009222757e-01 -2.344819408271e-02 1.434990777243e-01 2.344819408271e-02 1.434990777243e-01 2.344819408271e-02 8.565009222757e-01 -2.344819408271e-02
1.106100000000e-01 8.564923229657e-01 -2.360460820519e-02 1.435076770343e-01 2.360460820519e-02 1.435076770343e-01 2.360460820519e-02 8.564923229657e-01 -2.360460820519e-02
1.106837500000e-01 8.564836717789e-01 -2.376092382174e-02 1.435163282211e-01 2.376092382174e-02 1.435163282211e-01 2.376092382174e-02 8.564836717789e-01 -2.376092382174e-02
1.107575000000e-01 8.564749688109e-01 -2.391714109705e-02 1.435250311891e-01 2.391714109705e-02 1.435250311891e-01 2.391714109705e-02 8.564749688109e-01 -2.391714109705e-02
1.108312500000e-01 8.564662141570e-01 -2.407326019537e-02 1.435337858430e-01 2.407326019537e-02 1.435337858430e-01 2.407326019537e-02 8.564662141570e-01 -2.407326019537e-02
1.109050000000e-01 8.564574079122e-01 -2.422928128059e-02 1.435425920878e-01 2.422928128059e-02 1.435425920878e-01 2.422928128059e-02 8.564574079122e-01 -2.422928128059e-02
1.109787500000e-01 8.564485501711e-01 -2.438520451614e-02 1.435514498289e-01 2.438520451614e-02 1.435514498289e-01 2.438520451614e-02 8.564485501711e-01 -2.438520451614e-02
1.110525000000e-01 8.564396410284e-01 -2.454103006509e-02 1.435603589716e-01 2.454103006509e-02 1.435603589716e-01 2.454103006509e-02 8.564396410284e-01 -2.454103006509e-02
1.111262500000e-01 8.564306805780e-01 -2.469675809006e-02 1.435693194220e-01 2.469675809006e-02 1.435693194220e-01 2.469675809006e-02 8.564306805780e-01 -2.469675809006e-02
1.112000000000e-01 8.564216689138e-01 -2.485238875329e-02 1.435783310862e-01 2.485238875329e-02 1.435783310862e-01 2.485238875329e-02 8.564216689138e-01 -2.485238875329e-02
1.112737500000e-01 8.564126061294e-01 -2.500792221660e-02 1.435873938706e-01 2.500792221660e-02 1.435873938706e-01 2.500792221660e-02 8.564126061294e-01 -2.500792221660e-02
1.113475000000e-01 8.564034923180e-01 -2.516335864144e-02 1.435965076820e-01 2.516335864144e-02 1.435965076820e-01 2.516335864144e-02 8.564034923180e-01 -2.516335864144e-02
1.114212500000e-01 8.563943275726e-01 -2.531869818882e-02 1.436056724274e-01 2.531869818882e-02 1.436056724274e-01 2.531869818882e-02 8.563943275726e-01 -2.531869818882e-02
1.114950000000e-01 8.563851119859e-01 -2.547394101937e-02 1.436148880141e-01 2.547394101937e-02 1.436148880141e-01 2.547394101937e-02 8.563851119859e-01 -2.547394101937e-02
1.115687500000e-01 8.563758456504e-01 -2.562908729331e-02 1.436241543496e-01 2.562908729331e-02 1.436241543496e-01 2.562908729331e-02 8.563758456504e-01 -2.562908729331e-02
1.116425000000e-01 8.563665286581e-01 -2.578413717047e-02 1.436334713419e-01 2.578413717047e-02 1.436334713419e-01 2.578413717047e-02 8.563665286581e-01 -2.578413717047e-02
1.117162500000e-01 8.563571611008e-01 -2.593909081028e-02 1.436428388992e-01 2.593909081028e-02 1.436428388992e-01 2.593909081028e-02 8.563571611008e-01 -2.593909081028e-02
1.117900000000e-01 8.563477430702e-01 -2.609394837178e-02 1.436522569298e-01 2.609394837178e-02 1.436522569298e-01 2.609394837178e-02 8.563477430702e-01 -2.609394837178e-02
1.118637500000e-01 8.563382746574e-01 -2.624871001361e-02 1.436617253426e-01 2.624871001361e-02 1.436617253426e-01 2.624871001361e-02 8.563382746574e-01 -2.624871001361e-02
1.119375000000e-01 8.563287559536e-01 -2.640337589400e-02 1.436712440464e-01 2.640337589400e-02 1.436712440464e-01 2.640337589400e-02 8.563287559536e-01 -2.640337589400e-02
1.120112500000e-01 8.563191870494e-01 -2.655794617083e-02 1.436808129506e-01 2.655794617083e-02 1.436808129506e-01 2.655794617083e-02 8.563191870494e-01 -2.655794617083e-02
1.120850000000e-01 8.563095680353e-01 -2.671242100155e-02 1.436904319647e-01 2.671242100155e-02 1.436904319647e-01 2.671242100155e-02 8.563095680353e-01 -2.671242100155e-02
1.121587500000e-01 8.562998990014e-01 -2.686680054323e-02 1.437001009986e-01 2.686680054323e-02 1.437001009986e-01 2.686680054323e-02 8.562998990014e-01 -2.686680054323e-02
1.122325000000e-01 8.562901800376e-01 -2.702108495256e-02 1.437098199624e-01 2.702108495256e-02 1.437098199624e-01 2.702108495256e-02 8.562901800376e-01 -2.702108495256e-02
1.123062500000e-01 8.562804112335e-01 -2.717527438583e-02 1.437195887665e-01 2.717527438583e-02 1.437195887665e-01 2.717527438583e-02 8.562804112335e-01 -2.717527438583e-02
1.123800000000e-01 8.562705926785e-01 -2.732936899897e-02 1.437294073215e-01 2.732936899897e-02 1.437294073215e-01 2.732936899897e-02 8.562705926785e-01 -2.732936899897e-02
1.124537500000e-01 8.562607244616e-01 -2.748336894748e-02 1.437392755384e-01 2.748336894748e-02 1.437392755384e-01 2.748336894748e-02 8.562607244616e-01 -2.748336894748e-02
1.125275000000e-01 8.562508066717e-01 -2.763727438652e-02 1.437491933283e-01 2.763727438652e-02 1.437491933283e-01 2.763727438652e-02 8.562508066717e-01 -2.763727438652e-02
1.126012500000e-01 8.562408393973e-01 -2.779108547084e-02 1.437591606027e-01 2.779108547084e-02 1.437591606027e-01 2.779108547084e-02 8.562408393973e-01 -2.779108547084e-02
1.126750000000e-01 8.562308227265e-01 -2.794480235482e-02 1.437691772735e-01 2.794480235482e-02 1.437691772735e-01 2.794480235482e-02 8.562308227265e-01 -2.794480235482e-02
1.127487500000e-01 8.562207567475e-01 -2.809842519246e-02 1.437792432525e-01 2.809842519246e-02 1.437792432525e-01 2.809842519246e-02 8.562207567475e-01 -2.809842519246e-02
1.128225000000e-01 8.562106415479e-01 -2.825195413736e-02 1.437893584521e-01 2.825195413736e-02 1.437893584521e-01 2.825195413736e-02 8.562106415479e-01 -2.825195413736e-02
1.128962500000e-01 8.562004772153e-01 -2.840538934277e-02 1.437995227847e-01 2.840538934277e-02 1.437995227847e-01 2.840538934277e-02 8.562004772153e-01 -2.840538934277e-02
1.129700000000e-01 8.561902638367e-01 -2.855873096155e-02 1.438097361633e-01 2.855873096155e-02 1.438097361633e-01 2.855873096155e-02 8.561902638367e-01 -2.855873096155e-02
1.130437500000e-01 8.561800014991e-01 -2.871197914618e-02 1.438199985009e-01 2.871197914618e-02 1.438199985009e-01 2.871197914618e-02 8.561800014991e-01 -2.871197914618e-02
1.131175000000e-01 8.561696902892e-01 -2.886513404876e-02 1.438303097108e-01 2.886513404876e-02 1.438303097108e-01 2.886513404876e-02 8.561696902892e-01 -2.886513404876e-02
1.131912500000e-01 8.561593302935e-01 -2.901819582104e-02 1.438406697065e-01 2.901819582104e-02 1.438406697065e-01 2.901819582104e-02 8.561593302935e-01 -2.901819582104e-02
1.132650000000e-01 8.561489215979e-01 -2.917116461437e-02 1.438510784021e-01 2.917116461437e-02 1.438510784021e-01 2.917116461437e-02 8.561489215979e-01 -2.917116461437e-02
1.133387500000e-01 8.561384642884e-01 -2.932404057975e-02 1.438615357116e-01 2.932404057975e-02 1.438615357116e-01 2.932404057975e-02 8.561384642884e-01 -2.932404057975e-02
1.134125000000e-01 8.561279584507e-01 -2.947682386779e-02 1.438720415493e-01 2.947682386779e-02 1.438720415493e-01 2.947682386779e-02 8.561279584507e-01 -2.947682386779e-02
1.134862500000e-01 8.561174041701e-01 -2.962951462874e-02 1.438825958299e-01 2.962951462874e-02 1.438825958299e-01 2.962951462874e-02 8.561174041701e-01 -2.962951462874e-02
1.135600000000e-01 8.561068015317e-01 -2.978211301248e-02 1.438931984683e-01 2.978211301248e-02 1.438931984683e-01 2.978211301248e-02 8.561068015317e-01 -2.978211301248e-02
1.136337500000e-01 8.560961506203e-01 -2.993461916853e-02 1.439038493797e-01 2.993461916853e-02 1.439038493797e-01 2.993461916853e-02 8.560961506203e-01 -2.993461916853e-02
1.137075000000e-01 8.560854515206e-01 -3.008703324603e-02 1.439145484794e-01 3.008703324603e-02 1.439145484794e-01 3.008703324603e-02 8.560854515206e-01 -3.008703324603e-02
1.137812500000e-01 8.560747043169e-01 -3.023935539376e-02 1.439252956831e-01 3.023935539376e-02 1.439252956831e-01 3.023935539376e-02 8.560747043169e-01 -3.023935539376e-02
1.138550000000e-01 8.560639090933e-01 -3.039158576013e-02 1.439360909067e-01 3.039158576013e-02 1.439360909067e-01 3.039158576013e-02 8.560639090933e-01 -3.039158576013e-02
1.139287500000e-01 8.560530659336e-01 -3.054372449321e-02 1.439469340664e-01 3.054372449321e-02 1.439469340664e-01 3.054372449321e-02 8.560530659336e-01 -3.054372449321e-02
1.140025000000e-01 8.560421749214e-01 -3.069577174068e-02 1.439578250786e-01 3.069577174068e-02 1.439578250786e-01 3.069577174068e-02 8.560421749214e-01 -3.069577174068e-02
1.140762500000e-01 8.560312361400e-01 -3.084772764988e-02 1.439687638600e-01 3.084772764988e-02 1.439687638600e-01 3.084772764988e-02 8.560312361400e-01 -3.084772764988e-02
1.141500000000e-01 8.560202496726e-01 -3.099959236776e-02 1.439797503274e-01 3.099959236776e-02 1.439797503274e-01 3.099959236776e-02 8.560202496726e-01 -3.099959236776e-02
1.142237500000e-01 8.560092156019e-01 -3.115136604095e-02 1.439907843981e-01 3.115136604095e-02 1.439907843981e-01 3.115136604095e-02 8.560092156019e-01 -3.115136604095e-02
1.142975000000e-01 8.559981340106e-01 -3.130304881570e-02 1.440018659894e-01 3.130304881570e-02 1.440018659894e-01 3.130304881570e-02 8.559981340106e-01 -3.130304881570e-02
1.143712500000e-01 8.559870049810e-01 -3.145464083790e-02 1.440129950190e-01 3.145464083790e-02 1.440129950190e-01 3.145464083790e-02 8.559870049810e-01 -3.145464083790e-02
1.144450000000e-01 8.559758285951e-01 -3.160614225309e-02 1.440241714049e-01 3.160614225309e-02 1.440241714049e-01 3.160614225309e-02 8.559758285951e-01 -3.160614225309e-02
1.145187500000e-01 8.559646049349e-01 -3.175755320647e-02 1.440353950651e-01 3.175755320647e-02 1.440353950651e-01 3.175755320647e-02 8.559646049349e-01 -3.175755320647e-02
1.145925000000e-01 8.559533340820e-01 -3.190887384285e-02 1.440466659180e-01 3.190887384285e-02 1.440466659180e-01 3.190887384285e-02 8.559533340820e-01 -3.190887384285e-02
1.146662500000e-01 8.559420161176e-01 -3.206010430672e-02 1.440579838824e-01 3.206010430672e-02 1.440579838824e-01 3.206010430672e-02 8.559420161176e-01 -3.206010430672e-02
1.147400000000e-01 8.559306511230e-01 -3.221124474221e-02 1.440693488770e-01 3.221124474221e-02 1.440693488770e-01 3.221124474221e-02 8.559306511230e-01 -3.221124474221e-02
1.148137500000e-01 8.559192391790e-01 -3.236229529309e-02 1.440807608210e-01 3.236229529309e-02 1.440807608210e-01 3.236229529309e-02 8.559192391790e-01 -3.236229529309e-02
1.148875000000e-01 8.559077803663e-01 -3.251325610280e-02 1.440922196337e-01 3.251325610280e-02 1.440922196337e-01 3.251325610280e-02 8.559077803663e-01 -3.251325610280e-02
1.149612500000e-01 8.558962747652e-01 -3.266412731440e-02 1.441037252348e-01 3.266412731440e-02 1.441037252348e-01 3.266412731440e-02 8.558962747652e-01 -3.266412731440e-02
1.150350000000e-01 8.558847224560e-01 -3.281490907063e-02 1.441152775440e-01 3.281490907063e-02 1.441152775440e-01 3.281490907063e-02 8.558847224560e-01 -3.281490907063e-02
1.151087500000e-01 8.558731235184e-01 -3.296560151387e-02 1.441268764816e-01 3.296560151387e-02 1.441268764816e-01 3.296560151387e-02 8.558731235184e-01 -3.296560151387e-02
1.151825000000e-01 8.558614780323e-01 -3.311620478616e-02 1.441385219677e-01 3.311620478616e-02 1.441385219677e-01 3.311620478616e-02 8.558614780323e-01 -3.311620478616e-02
1.152562500000e-01 8.558497860772e-01 -3.326671902920e-02 1.441502139228e-01 3.326671902920e-02 1.441502139228e-01 3.326671902920e-02 8.558497860772e-01 -3.326671902920e-02
1.153300000000e-01 8.558380477321e-01 -3.341714438433e-02 1.441619522679e-01 3.341714438433e-02 1.441619522679e-01 3.341714438433e-02 8.558380477321e-01 -3.341714438433e-02
1.154037500000e-01 8.558262630760e-01 -3.356748099256e-02 1.441737369240e-01 3.356748099256e-02 1.441737369240e-01 3.356748099256e-02 8.558262630760e-01 -3.356748099256e-02
1.154775000000e-01 8.558144321879e-01 -3.371772899456e-02 1.441855678121e-01 3.371772899456e-02 1.441855678121e-01 3.371772899456e-02 8.558144321879e-01 -3.371772899456e-02
1.155512500000e-01 8.558025551461e-01 -3.386788853066e-02 1.441974448539e-01 3.386788853066e-02 1.441974448539e-01 3.386788853066e-02 8.558025551461e-01 -3.386788853066e-02
1.156250000000e-01 8.557906320289e-01 -3.401795974083e-02 1.442093679711e-01 3.401795974083e-02 1.442093679711e-01 3.401795974083e-02 8.557906320289e-01 -3.401795974083e-02
1.156987500000e-01 8.557786629144e-01 -3.416794276473e-02 1.442213370856e-01 3.416794276473e-02 1.442213370856e-01 3.416794276473e-02 8.557786629144e-01 -3.416794276473e-02
1.157725000000e-01 8.557666478805e-01 -3.431783774166e-02 1.442333521195e-01 3.431783774166e-02 1.442333521195e-01 3.431783774166e-02 8.557666478805e-01 -3.431783774166e-02
1.158462500000e-01 8.557545870046e-01 -3.446764481060e-02 1.442454129954e-01 3.446764481060e-02 1.442454129954e-01 3.446764481060e-02 8.557545870046e-01 -3.446764481060e-02
1.159200000000e-01 8.557424803643e-01 -3.461736411018e-02 1.442575196357e-01 3.461736411018e-02 1.442575196357e-01 3.461736411018e-02 8.557424803643e-01 -3.461736411018e-02
1.159937500000e-01 8.557303280366e-01 -3.476699577871e-02 1.442696719634e-01 3.476699577871e-02 1.442696719634e-01 3.476699577871e-02 8.557303280366e-01 -3.476699577871e-02
1.160675000000e-01 8.557181300984e-01 -3.491653995415e-02 1.442818699016e-01 3.491653995415e-02 1.442818699016e-01 3.491653995415e-02 8.557181300984e-01 -3.491653995415e-02
1.161412500000e-01 8.557058866265e-01 -3.506599677414e-02 1.442941133735e-01 3.506599677414e-02 1.442941133735e-01 3.506599677414e-02 8.557058866265e-01 -3.506599677414e-02
1.162150000000e-01 8.556935976973e-01 -3.521536637598e-02 1.443064023027e-01 3.521536637598e-02 1.443064023027e-01 3.521536637598e-02 8.556935976973e-01 -3.521536637598e-02
1.162887500000e-01 8.556812633870e-01 -3.536464889665e-02 1.443187366130e-01 3.536464889665e-02 1.443187366130e-01 3.536464889665e-02 8.556812633870e-01 -3.536464889665e-02
1.163625000000e-01 8.556688837717e-01 -3.551384447279e-02 1.443311162283e-01 3.551384447279e-02 1.443311162283e-01 3.551384447279e-02 8.556688837717e-01 -3.551384447279e-02
1.164362500000e-01 8.556564589271e-01 -3.566295324070e-02 1.443435410729e-01 3.566295324070e-02 1.443435410729e-01 3.566295324070e-02 8.556564589271e-01 -3.566295324070e-02
1.165100000000e-01 8.556439889289e-01 -3.581197533639e-02 1.443560110711e-01 3.581197533639e-02 1.443560110711e-01 3.581197533639e-02 8.556439889289e-01 -3.581197533639e-02
1.165837500000e-01 8.556314738523e-01 -3.596091089550e-02 1.443685261477e-01 3.596091089550e-02 1.443685261477e-01 3.596091089550e-02 8.556314738523e-01 -3.596091089550e-02
1.166575000000e-01 8.556189137726e-01 -3.610976005336e-02 1.443810862274e-01 3.610976005336e-02 1.443810862274e-01 3.610976005336e-02 8.556189137726e-01 -3.610976005336e-02
1.167312500000e-01 8.556063087646e-01 -3.625852294500e-02 1.443936912354e-01 3.625852294500e-02 1.443936912354e-01 3.625852294500e-02 8.556063087646e-01 -3.625852294500e-02
1.168050000000e-01 8.555936589030e-01 -3.640719970508e-02 1.444063410970e-01 3.640719970508e-02 1.444063410970e-01 3.640719970508e-02 8.555936589030e-01 -3.640719970508e-02
1.168787500000e-01 8.555809642624e-01 -3.655579046796e-02 1.444190357376e-01 3.655579046796e-02 1.444190357376e-01 3.655579046796e-02 8.555809642624e-01 -3.655579046796e-02
1.169525000000e-01 8.555682249169e-01 -3.670429536770e-02 1.444317750831e-01 3.670429536770e-02 1.444317750831e-01 3.670429536770e-02 8.555682249169e-01 -3.670429536770e-02
1.170262500000e-01 8.555554409407e-01 -3.685271453799e-02 1.444445590593e-01 3.685271453799e-02 1.444445590593e-01 3.685271453799e-02 8.555554409407e-01 -3.685271453799e-02
1.171000000000e-01 8.555426124075e-01 -3.700104811223e-02 1.444573875925e-01 3.700104811223e-02 1.444573875925e-01 3.700104811223e-02 8.555426124075e-01 -3.700104811223e-02
1.171737500000e-01 8.555297393909e-01 -3.714929622351e-02 1.444702606091e-01 3.714929622351e-02 1.444702606091e-01 3.714929622351e-02 8.555297393909e-01 -3.714929622351e-02
1.172475000000e-01 8.555168219645e-01 -3.729745900458e-02 1.444831780355e-01 3.729745900458e-02 1.444831780355e-01 3.729745900458e-02 8.555168219645e-01 -3.729745900458e-02
1.173212500000e-01 8.555038602013e-01 -3.744553658787e-02 1.444961397987e-01 3.744553658787e-02 1.444961397987e-01 3.744553658787e-02 8.555038602013e-01 -3.744553658787e-02
1.173950000000e-01 8.554908541744e-01 -3.759352910551e-02 1.445091458256e-01 3.759352910551e-02 1.445091458256e-01 3.759352910551e-02 8.554908541744e-01 -3.759352910551e-02
1.174687500000e-01 8.554778039565e-01 -3.774143668930e-02 1.445221960435e-01 3.774143668930e-02 1.445221960435e-01 3.774143668930e-02 8.554778039565e-01 -3.774143668930e-02
1.175425000000e-01 8.554647096201e-01 -3.788925947074e-02 1.445352903799e-01 3.788925947074e-02 1.445352903799e-01 3.788925947074e-02 8.554647096201e-01 -3.788925947074e-02
1.176162500000e-01 8.554515712377e-01 -3.803699758099e-02 1.445484287623e-01 3.803699758099e-02 1.445484287623e-01 3.803699758099e-02 8.554515712377e-01 -3.803699758099e-02
1.176900000000e-01 8.554383888814e-01 -3.818465115094e-02 1.445616111186e-01 3.818465115094e-02 1.445616111186e-01 3.818465115094e-02 8.554383888814e-01 -3.818465115094e-02
1.177637500000e-01 8.554251626230e-01 -3.833222031111e-02 1.445748373770e-01 3.833222031111e-02 1.445748373770e-01 3.833222031111e-02 8.554251626230e-01 -3.833222031111e-02
1.178375000000e-01 8.554118925344e-01 -3.847970519177e-02 1.445881074656e-01 3.847970519177e-02 1.445881074656e-01 3.847970519177e-02 8.554118925344e-01 -3.847970519177e-02
1.179112500000e-01 8.553985786870e-01 -3.862710592283e-02 1.446014213130e-01 3.862710592283e-02 1.446014213130e-01 3.862710592283e-02 8.553985786870e-01 -3.862710592283e-02
1.179850000000e-01 8.553852211522e-01 -3.877442263391e-02 1.446147788478e-01 3.877442263391e-02 1.446147788478e-01 3.877442263391e-02 8.553852211522e-01 -3.877442263391e-02
1.180587500000e-01 8.553718200010e-01 -3.892165545432e-02 1.446281799990e-01 3.892165545432e-02 1.446281799990e-01 3.892165545432e-02 8.553718200010e-01 -3.892165545432e-02
1.181325000000e-01 8.553583753044e-01 -3.906880451307e-02 1.446416246956e-01 3.906880451307e-02 1.446416246956e-01 3.906880451307e-02 8.553583753044e-01 -3.906880451307e-02
1.182062500000e-01 8.553448871331e-01 -3.921586993885e-02 1.446551128669e-01 3.921586993885e-02 1.446551128669e-01 3.921586993885e-02 8.553448871331e-01 -3.921586993885e-02
1.182800000000e-01 8.553313555575e-01 -3.936285186005e-02 1.446686444425e-01 3.936285186005e-02 1.446686444425e-01 3.936285186005e-02 8.553313555575e-01 -3.936285186005e-02
1.183537500000e-01 8.553177806481e-01 -3.950975040476e-02 1.446822193519e-01 3.950975040476e-02 1.446822193519e-01 3.950975040476e-02 8.553177806481e-01 -3.950975040476e-02
1.184275000000e-01 8.553041624747e-01 -3.965656570075e-02 1.446958375253e-01 3.965656570075e-02 1.446958375253e-01 3.965656570075e-02 8.553041624747e-01 -3.965656570075e-02
1.185012500000e-01 8.552905011074e-01 -3.980329787549e-02 1.447094988926e-01 3.980329787549e-02 1.447094988926e-01 3.980329787549e-02 8.552905011074e-01 -3.980329787549e-02
1.185750000000e-01 8.552767966159e-01 -3.994994705617e-02 1.447232033841e-01 3.994994705617e-02 1.447232033841e-01 3.994994705617e-02 8.552767966159e-01 -3.994994705617e-02
1.186487500000e-01 8.552630490696e-01 -4.009651336966e-02 1.447369509304e-01 4.009651336966e-02 1.447369509304e-01 4.009651336966e-02 8.552630490696e-01 -4.009651336966e-02
1.187225000000e-01 8.552492585378e-01 -4.024299694251e-02 1.447507414622e-01 4.024299694251e-02 1.447507414622e-01 4.024299694251e-02 8.552492585378e-01 -4.024299694251e-02
1.187962500000e-01 8.552354250897e-01 -4.038939790101e-02 1.447645749103e-01 4.038939790101e-02 1.447645749103e-01 4.038939790101e-02 8.552354250897e-01 -4.038939790101e-02
1.188700000000e-01 8.552215487941e-01 -4.053571637112e-02 1.447784512059e-01 4.053571637112e-02 1.447784512059e-01 4.053571637112e-02 8.552215487941e-01 -4.053571637112e-02
1.189437500000e-01 8.552076297198e-01 -4.068195247852e-02 1.447923702802e-01 4.068195247852e-02 1.447923702802e-01 4.068195247852e-02 8.552076297198e-01 -4.068195247852e-02
1.190175000000e-01 8.551936679352e-01 -4.082810634858e-02 1.448063320648e-01 4.082810634858e-02 1.448063320648e-01 4.082810634858e-02 8.551936679352e-01 -4.082810634858e-02
1.190912500000e-01 8.551796635087e-01 -4.097417810638e-02 1.448203364913e-01 4.097417810638e-02 1.448203364913e-01 4.097417810638e-02 8.551796635087e-01 -4.097417810638e-02
1.191650000000e-01 8.551656165083e-01 -4.112016787669e-02 1.448343834917e-01 4.112016787669e-02 1.448343834917e-01 4.112016787669e-02 8.551656165083e-01 -4.112016787669e-02
1.192387500000e-01 8.551515270021e-01 -4.126607578402e-02 1.448484729979e-01 4.126607578402e-02 1.448484729979e-01 4.126607578402e-02 8.551515270021e-01 -4.126607578402e-02
1.193125000000e-01 8.551373950578e-01 -4.141190195254e-02 1.448626049422e-01 4.141190195254e-02 1.448626049422e-01 4.141190195254e-02 8.551373950578e-01 -4.141190195254e-02
1.193862500000e-01 8.551232207428e-01 -4.155764650617e-02 1.448767792572e-01 4.155764650617e-02 1.448767792572e-01 4.155764650617e-02 8.551232207428e-01 -4.155764650617e-02
1.194600000000e-01 8.551090041246e-01 -4.170330956850e-02 1.448909958754e-01 4.170330956850e-02 1.448909958754e-01 4.170330956850e-02 8.551090041246e-01 -4.170330956850e-02
1.195337500000e-01 8.550947452703e-01 -4.184889126285e-02 1.449052547297e-01 4.184889126285e-02 1.449052547297e-01 4.184889126285e-02 8.550947452703e-01 -4.184889126285e-02
1.196075000000e-01 8.550804442469e-01 -4.199439171224e-02 1.449195557531e-01 4.199439171224e-02 1.449195557531e-01 4.199439171224e-02 8.550804442469e-01 -4.199439171224e-02
1.196812500000e-01 8.550661011212e-01 -4.213981103942e-02 1.449338988788e-01 4.213981103942e-02 1.449338988788e-01 4.213981103942e-02 8.550661011212e-01 -4.213981103942e-02
1.197550000000e-01 8.550517159597e-01 -4.228514936681e-02 1.449482840403e-01 4.228514936681e-02 1.449482840403e-01 4.228514936681e-02 8.550517159597e-01 -4.228514936681e-02
1.198287500000e-01 8.550372888289e-01 -4.243040681659e-02 1.449627111711e-01 4.243040681659e-02 1.449627111711e-01 4.243040681659e-02 8.550372888289e-01 -4.243040681659e-02
1.199025000000e-01 8.550228197950e-01 -4.257558351062e-02 1.449771802050e-01 4.257558351062e-02 1.449771802050e-01 4.257558351062e-02 8.550228197950e-01 -4.257558351062e-02
1.199762500000e-01 8.550083089240e-01 -4.272067957047e-02 1.449916910760e-01 4.272067957047e-02 1.449916910760e-01 4.272067957047e-02 8.550083089240e-01 -4.272067957047e-02
1.200500000000e-01 8.549937562817e-01 -4.286569511745e-02 1.450062437183e-01 4.286569511745e-02 1.450062437183e-01 4.286569511745e-02 8.549937562817e-01 -4.286569511745e-02
1.201237500000e-01 8.549791619339e-01 -4.301063027256e-02 1.450208380661e-01 4.301063027256e-02 1.450208380661e-01 4.301063027256e-02 8.549791619339e-01 -4.301063027256e-02
1.201975000000e-01 8.549645259460e-01 -4.315548515654e-02 1.450354740540e-01 4.315548515654e-02 1.450354740540e-01 4.315548515654e-02 8.549645259460e-01 -4.315548515654e-02
1.202712500000e-01 8.549498483833e-01 -4.330025988982e-02 1.450501516167e-01 4.330025988982e-02 1.450501516167e-01 4.330025988982e-02 8.549498483833e-01 -4.330025988982e-02
1.203450000000e-01 8.549351293108e-01 -4.344495459256e-02 1.450648706892e-01 4.344495459256e-02 1.450648706892e-01 4.344495459256e-02 8.549351293108e-01 -4.344495459256e-02
1.204187500000e-01 8.549203687937e-01 -4.358956938464e-02 1.450796312063e-01 4.358956938464e-02 1.450796312063e-01 4.358956938464e-02 8.549203687937e-01 -4.358956938464e-02
1.204925000000e-01 8.549055668965e-01 -4.373410438566e-02 1.450944331035e-01 4.373410438566e-02 1.450944331035e-01 4.373410438566e-02 8.549055668965e-01 -4.373410438566e-02
1.205662500000e-01 8.548907236838e-01 -4.387855971493e-02 1.451092763162e-01 4.387855971493e-02 1.451092763162e-01 4.387855971493e-02 8.548907236838e-01 -4.387855971493e-02
1.206400000000e-01 8.548758392200e-01 -4.402293549150e-02 1.451241607800e-01 4.402293549150e-02 1.451241607800e-01 4.402293549150e-02 8.548758392200e-01 -4.402293549150e-02
1.207137500000e-01 8.548609135694e-01 -4.416723183411e-02 1.451390864306e-01 4.416723183411e-02 1.451390864306e-01 4.416723183411e-02 8.548609135694e-01 -4.416723183411e-02
1.207875000000e-01 8.548459467960e-01 -4.431144886124e-02 1.451540532040e-01 4.431144886124e-02 1.451540532040e-01 4.431144886124e-02 8.548459467960e-01 -4.431144886124e-02
1.208612500000e-01 8.548309389635e-01 -4.445558669110e-02 1.451690610365e-01 4.445558669110e-02 1.451690610365e-01 4.445558669110e-02 8.548309389635e-01 -4.445558669110e-02
1.209350000000e-01 8.548158901357e-01 -4.459964544162e-02 1.451841098643e-01 4.459964544162e-02 1.451841098643e-01 4.459964544162e-02 8.548158901357e-01 -4.459964544162e-02
1.210087500000e-01 8.548008003761e-01 -4.474362523043e-02 1.451991996239e-01 4.474362523043e-02 1.451991996239e-01 4.474362523043e-02 8.548008003761e-01 -4.474362523043e-02
1.210825000000e-01 8.547856697479e-01 -4.488752617493e-02 1.452143302521e-01 4.488752617493e-02 1.452143302521e-01 4.488752617493e-02 8.547856697479e-01 -4.488752617493e-02
1.211562500000e-01 8.547704983144e-01 -4.503134839220e-02 1.452295016856e-01 4.503134839220e-02 1.452295016856e-01 4.503134839220e-02 8.547704983144e-01 -4.503134839220e-02
1.212300000000e-01 8.547552861384e-01 -4.517509199908e-02 1.452447138616e-01 4.517509199908e-02 1.452447138616e-01 4.517509199908e-02 8.547552861384e-01 -4.517509199908e-02
1.213037500000e-01 8.547400332827e-01 -4.531875711211e-02 1.452599667173e-01 4.531875711211e-02 1.452599667173e-01 4.531875711211e-02 8.547400332827e-01 -4.531875711211e-02
1.213775000000e-01 8.547247398100e-01 -4.546234384759e-02 1.452752601900e-01 4.546234384759e-02 1.452752601900e-01 4.546234384759e-02 8.547247398100e-01 -4.546234384759e-02
1.214512500000e-01 8.547094057828e-01 -4.560585232152e-02 1.452905942172e-01 4.560585232152e-02 1.452905942172e-01 4.560585232152e-02 8.547094057828e-01 -4.560585232152e-02
1.215250000000e-01 8.546940312632e-01 -4.574928264965e-02 1.453059687368e-01 4.574928264965e-02 1.453059687368e-01 4.574928264965e-02 8.546940312632e-01 -4.574928264965e-02
1.215987500000e-01 8.546786163134e-01 -4.589263494744e-02 1.453213836866e-01 4.589263494744e-02 1.453213836866e-01 4.589263494744e-02 8.546786163134e-01 -4.589263494744e-02
1.216725000000e-01 8.546631609952e-01 -4.603590933009e-02 1.453368390048e-01 4.603590933009e-02 1.453368390048e-01 4.603590933009e-02 8.546631609952e-01 -4.603590933009e-02
1.217462500000e-01 8.546476653705e-01 -4.617910591255e-02 1.453523346295e-01 4.617910591255e-02 1.453523346295e-01 4.617910591255e-02 8.546476653705e-01 -4.617910591255e-02
1.218200000000e-01 8.546321295008e-01 -4.632222480948e-02 1.453678704992e-01 4.632222480948e-02 1.453678704992e-01 4.632222480948e-02 8.546321295008e-01 -4.632222480948e-02
1.218937500000e-01 8.546165534476e-01 -4.646526613527e-02 1.453834465524e-01 4.646526613527e-02 1.453834465524e-01 4.646526613527e-02 8.546165534476e-01 -4.646526613527e-02
1.219675000000e-01 8.546009372720e-01 -4.660823000407e-02 1.453990627280e-01 4.660823000407e-02 1.453990627280e-01 4.660823000407e-02 8.546009372720e-01 -4.660823000407e-02
1.220412500000e-01 8.545852810351e-01 -4.675111652974e-02 1.454147189649e-01 4.675111652974e-02 1.454147189649e-01 4.675111652974e-02 8.545852810351e-01 -4.675111652974e-02
1.221150000000e-01 8.545695847979e-01 -4.689392582589e-02 1.454304152021e-01 4.689392582589e-02 1.454304152021e-01 4.689392582589e-02 8.545695847979e-01 -4.689392582589e-02
1.221887500000e-01 8.545538486211e-01 -4.703665800585e-02 1.454461513789e-01 4.703665800585e-02 1.454461513789e-01 4.703665800585e-02 8.545538486211e-01 -4.703665800585e-02
1.222625000000e-01 8.545380725653e-01 -4.717931318271e-02 1.454619274347e-01 4.717931318271e-02 1.454619274347e-01 4.717931318271e-02 8.545380725653e-01 -4.717931318271e-02
1.223362500000e-01 8.545222566907e-01 -4.732189146928e-02 1.454777433093e-01 4.732189146928e-02 1.454777433093e-01 4.732189146928e-02 8.545222566907e-01 -4.732189146928e-02
1.224100000000e-01 8.545064010578e-01 -4.746439297812e-02 1.454935989422e-01 4.746439297812e-02 1.454935989422e-01 4.746439297812e-02 8.545064010578e-01 -4.746439297812e-02
1.224837500000e-01 8.544905057265e-01 -4.760681782152e-02 1.455094942735e-01 4.760681782152e-02 1.455094942735e-01 4.760681782152e-02 8.544905057265e-01 -4.760681782152e-02
1.225575000000e-01 8.544745707568e-01 -4.774916611151e-02 1.455254292432e-01 4.774916611151e-02 1.455254292432e-01 4.774916611151e-02 8.544745707568e-01 -4.774916611151e-02
1.226312500000e-01 8.544585962085e-01 -4.789143795987e-02 1.455414037915e-01 4.789143795987e-02 1.455414037915e-01 4.789143795987e-02 8.544585962085e-01 -4.789143795987e-02
1.227050000000e-01 8.544425821410e-01 -4.803363347811e-02 1.455574178590e-01 4.803363347811e-02 1.455574178590e-01 4.803363347811e-02 8.544425821410e-01 -4.803363347811e-02
1.227787500000e-01 8.544265286138e-01 -4.817575277749e-02 1.455734713862e-01 4.817575277749e-02 1.455734713862e-01 4.817575277749e-02 8.544265286138e-01 -4.817575277749e-02
1.228525000000e-01 8.544104356862e-01 -4.831779596901e-02 1.455895643138e-01 4.831779596901e-02 1.455895643138e-01 4.831779596901e-02 8.544104356862e-01 -4.831779596901e-02
1.229262500000e-01 8.543943034172e-01 -4.845976316341e-02 1.456056965828e-01 4.845976316341e-02 1.456056965828e-01 4.845976316341e-02 8.543943034172e-01 -4.845976316341e-02
1.230000000000e-01 8.543781318658e-01 -4.860165447119e-02 1.456218681342e-01 4.860165447119e-02 1.456218681342e-01 4.860165447119e-02 8.543781318658e-01 -4.860165447119e-02
1.230737500000e-01 8.543619210908e-01 -4.874347000258e-02 1.456380789092e-01 4.874347000258e-02 1.456380789092e-01 4.874347000258e-02 8.543619210908e-01 -4.874347000258e-02
1.231475000000e-01 8.543456711507e-01 -4.888520986755e-02 1.456543288493e-01 4.888520986755e-02 1.456543288493e-01 4.888520986755e-02 8.543456711507e-01 -4.888520986755e-02
1.232212500000e-01 8.543293821041e-01 -4.902687417584e-02 1.456706178959e-01 4.902687417584e-02 1.456706178959e-01 4.902687417584e-02 8.543293821041e-01 -4.902687417584e-02
1.232950000000e-01 8.543130540091e-01 -4.916846303690e-02 1.456869459909e-01 4.916846303690e-02 1.456869459909e-01 4.916846303690e-02 8.543130540091e-01 -4.916846303690e-02
1.233687500000e-01 8.542966869241e-01 -4.930997655997e-02 1.457033130759e-01 4.930997655997e-02 1.457033130759e-01 4.930997655997e-02 8.542966869241e-01 -4.930997655997e-02
1.234425000000e-01 8.542802809068e-01 -4.945141485402e-02 1.457197190932e-01 4.945141485402e-02 1.457197190932e-01 4.945141485402e-02 8.542802809068e-01 -4.945141485402e-02
1.235162500000e-01 8.542638360152e-01 -4.959277802775e-02 1.457361639848e-01 4.959277802775e-02 1.457361639848e-01 4.959277802775e-02 8.542638360152e-01 -4.959277802775e-02
1.235900000000e-01 8.542473523068e-01 -4.973406618964e-02 1.457526476932e-01 4.973406618964e-02 1.457526476932e-01 4.973406618964e-02 8.542473523068e-01 -4.973406618964e-02
1.236637500000e-01 8.542308298393e-01 -4.987527944791e-02 1.457691701607e-01 4.987527944791e-02 1.457691701607e-01 4.987527944791e-02 8.542308298393e-01 -4.987527944791e-02
1.237375000000e-01 8.542142686700e-01 -5.001641791052e-02 1.457857313300e-01 5.001641791052e-02 1.457857313300e-01 5.001641791052e-02 8.542142686700e-01 -5.001641791052e-02
1.238112500000e-01 8.541976688560e-01 -5.015748168520e-02 1.458023311440e-01 5.015748168520e-02 1.458023311440e-01 5.015748168520e-02 8.541976688560e-01 -5.015748168520e-02
1.238850000000e-01 8.541810304544e-01 -5.029847087941e-02 1.458189695456e-01 5.029847087941e-02 1.458189695456e-01 5.029847087941e-02 8.541810304544e-01 -5.029847087941e-02
1.239587500000e-01 8.541643535220e-01 -5.043938560040e-02 1.458356464780e-01 5.043938560040e-02 1.458356464780e-01 5.043938560040e-02 8.541643535220e-01 -5.043938560040e-02
1.240325000000e-01 8.541476381157e-01 -5.058022595513e-02 1.458523618843e-01 5.058022595513e-02 1.458523618843e-01 5.058022595513e-02 8.541476381157e-01 -5.058022595513e-02
1.241062500000e-01 8.541308842920e-01 -5.072099205035e-02 1.458691157080e-01 5.072099205035e-02 1.458691157080e-01 5.072099205035e-02 8.541308842920e-01 -5.072099205035e-02
1.241800000000e-01 8.541140921073e-01 -5.086168399255e-02 1.458859078927e-01 5.086168399255e-02 1.458859078927e-01 5.086168399255e-02 8.541140921073e-01 -5.086168399255e-02
1.242537500000e-01 8.540972616179e-01 -5.100230188797e-02 1.459027383821e-01 5.100230188797e-02 1.459027383821e-01 5.100230188797e-02 8.540972616179e-01 -5.100230188797e-02
1.243275000000e-01 8.540803928799e-01 -5.114284584261e-02 1.459196071201e-01 5.114284584261e-02 1.459196071201e-01 5.114284584261e-02 8.540803928799e-01 -5.114284584261e-02
1.244012500000e-01 8.540634859493e-01 -5.128331596224e-02 1.459365140507e-01 5.128331596224e-02 1.459365140507e-01 5.128331596224e-02 8.540634859493e-01 -5.128331596224e-02
1.244750000000e-01 8.540465408820e-01 -5.142371235238e-02 1.459534591180e-01 5.142371235238e-02 1.459534591180e-01 5.142371235238e-02 8.540465408820e-01 -5.142371235238e-02
1.245487500000e-01 8.540295577335e-01 -5.156403511830e-02 1.459704422665e-01 5.156403511830e-02 1.459704422665e-01 5.156403511830e-02 8.540295577335e-01 -5.156403511830e-02
1.246225000000e-01 8.540125365594e-01 -5.170428436504e-02 1.459874634406e-01 5.170428436504e-02 1.459874634406e-01 5.170428436504e-02 8.540125365594e-01 -5.170428436504e-02
1.246962500000e-01 8.539954774152e-01 -5.184446019740e-02 1.460045225848e-01 5.184446019740e-02 1.460045225848e-01 5.184446019740e-02 8.539954774152e-01 -5.184446019740e-02
1.247700000000e-01 8.539783803559e-01 -5.198456271993e-02 1.460216196441e-01 5.198456271993e-02 1.460216196441e-01 5.198456271993e-02 8.539783803559e-01 -5.198456271993e-02
1.248437500000e-01 8.539612454368e-01 -5.212459203696e-02 1.460387545632e-01 5.212459203696e-02 1.460387545632e-01 5.212459203696e-02 8.539612454368e-01 -5.212459203696e-02
1.249175000000e-01 8.539440727127e-01 -5.226454825256e-02 1.460559272873e-01 5.226454825256e-02 1.460559272873e-01 5.226454825256e-02 8.539440727127e-01 -5.226454825256e-02
1.249912500000e-01 8.539268622384e-01 -5.240443147058e-02 1.460731377616e-01 5.240443147058e-02 1.460731377616e-01 5.240443147058e-02 8.539268622384e-01 -5.240443147058e-02
1.250650000000e-01 8.539096140685e-01 -5.254424179463e-02 1.460903859315e-01 5.254424179463e-02 1.460903859315e-01 5.254424179463e-02 8.539096140685e-01 -5.254424179463e-02
1.251387500000e-01 8.538923282577e-01 -5.268397932807e-02 1.461076717423e-01 5.268397932807e-02 1.461076717423e-01 5.268397932807e-02 8.538923282577e-01 -5.268397932807e-02
1.252125000000e-01 8.538750048601e-01 -5.282364417404e-02 1.461249951399e-01 5.282364417404e-02 1.461249951399e-01 5.282364417404e-02 8.538750048601e-01 -5.282364417404e-02
1.252862500000e-01 8.538576439300e-01 -5.296323643544e-02 1.461423560700e-01 5.296323643544e-02 1.461423560700e-01 5.296323643544e-02 8.538576439300e-01 -5.296323643544e-02
1.253600000000e-01 8.538402455215e-01 -5.310275621494e-02 1.461597544785e-01 5.310275621494e-02 1.461597544785e-01 5.310275621494e-02 8.538402455215e-01 -5.310275621494e-02
1.254337500000e-01 8.538228096885e-01 -5.324220361496e-02 1.461771903115e-01 5.324220361496e-02 1.461771903115e-01 5.324220361496e-02 8.538228096885e-01 -5.324220361496e-02
1.255075000000e-01 8.538053364847e-01 -5.338157873771e-02 1.461946635153e-01 5.338157873771e-02 1.461946635153e-01 5.338157873771e-02 8.538053364847e-01 -5.338157873771e-02
1.255812500000e-01 8.537878259639e-01 -5.352088168516e-02 1.462121740361e-01 5.352088168516e-02 1.462121740361e-01 5.352088168516e-02 8.537878259639e-01 -5.352088168516e-02
1.256550000000e-01 8.537702781794e-01 -5.366011255904e-02 1.462297218206e-01 5.366011255904e-02 1.462297218206e-01 5.366011255904e-02 8.537702781794e-01 -5.366011255904e-02
1.257287500000e-01 8.537526931846e-01 -5.379927146085e-02 1.462473068154e-01 5.379927146085e-02 1.462473068154e-01 5.379927146085e-02 8.537526931846e-01 -5.379927146085e-02
1.258025000000e-01 8.537350710327e-01 -5.393835849187e-02 1.462649289673e-01 5.393835849187e-02 1.462649289673e-01 5.393835849187e-02 8.537350710327e-01 -5.393835849187e-02
1.258762500000e-01 8.537174117769e-01 -5.407737375315e-02 1.462825882231e-01 5.407737375315e-02 1.462825882231e-01 5.407737375315e-02 8.537174117769e-01 -5.407737375315e-02
1.259500000000e-01 8.536997154699e-01 -5.421631734549e-02 1.463002845301e-01 5.421631734549e-02 1.463002845301e-01 5.421631734549e-02 8.536997154699e-01 -5.421631734549e-02
1.260237500000e-01 8.536819821647e-01 -5.435518936949e-02 1.463180178353e-01 5.435518936949e-02 1.463180178353e-01 5.435518936949e-02 8.536819821647e-01 -5.435518936949e-02
1.260975000000e-01 8.536642119138e-01 -5.449398992550e-02 1.463357880862e-01 5.449398992550e-02 1.463357880862e-01 5.449398992550e-02 8.536642119138e-01 -5.449398992550e-02
1.261712500000e-01 8.536464047697e-01 -5.463271911366e-02 1.463535952303e-01 5.463271911366e-02 1.463535952303e-01 5.463271911366e-02 8.536464047697e-01 -5.463271911366e-02
1.262450000000e-01 8.536285607849e-01 -5.477137703387e-02 1.463714392151e-01 5.477137703387e-02 1.463714392151e-01 5.477137703387e-02 8.536285607849e-01 -5.477137703387e-02
1.263187500000e-01 8.536106800116e-01 -5.490996378580e-02 1.463893199884e-01 5.490996378580e-02 1.463893199884e-01 5.490996378580e-02 8.536106800116e-01 -5.490996378580e-02
1.263925000000e-01 8.535927625018e-01 -5.504847946892e-02 1.464072374982e-01 5.504847946892e-02 1.464072374982e-01 5.504847946892e-02 8.535927625018e-01 -5.504847946892e-02
1.264662500000e-01 8.535748083074e-01 -5.518692418245e-02 1.464251916926e-01 5.518692418245e-02 1.464251916926e-01 5.518692418245e-02 8.535748083074e-01 -5.518692418245e-02
1.265400000000e-01 8.535568174805e-01 -5.532529802539e-02 1.464431825195e-01 5.532529802539e-02 1.464431825195e-01 5.532529802539e-02 8.535568174805e-01 -5.532529802539e-02
1.266137500000e-01 8.535387900725e-01 -5.546360109653e-02 1.464612099275e-01 5.546360109653e-02 1.464612099275e-01 5.546360109653e-02 8.535387900725e-01 -5.546360109653e-02
1.266875000000e-01 8.535207261350e-01 -5.560183349443e-02 1.464792738650e-01 5.560183349443e-02 1.464792738650e-01 5.560183349443e-02 8.535207261350e-01 -5.560183349443e-02
1.267612500000e-01 8.535026257196e-01 -5.573999531741e-02 1.464973742804e-01 5.573999531741e-02 1.464973742804e-01 5.573999531741e-02 8.535026257196e-01 -5.573999531741e-02
1.268350000000e-01 8.534844888774e-01 -5.587808666359e-02 1.465155111226e-01 5.587808666359e-02 1.465155111226e-01 5.587808666359e-02 8.534844888774e-01 -5.587808666359e-02
1.269087500000e-01 8.534663156596e-01 -5.601610763087e-02 1.465336843404e-01 5.601610763087e-02 1.465336843404e-01 5.601610763087e-02 8.534663156596e-01 -5.601610763087e-02
1.269825000000e-01 8.534481061172e-01 -5.615405831692e-02 1.465518938828e-01 5.615405831692e-02 1.465518938828e-01 5.615405831692e-02 8.534481061172e-01 -5.615405831692e-02
1.270562500000e-01 8.534298603010e-01 -5.629193881918e-02 1.465701396990e-01 5.629193881918e-02 1.465701396990e-01 5.629193881918e-02 8.534298603010e-01 -5.629193881918e-02
1.271300000000e-01 8.534115782619e-01 -5.642974923489e-02 1.465884217381e-01 5.642974923489e-02 1.465884217381e-01 5.642974923489e-02 8.534115782619e-01 -5.642974923489e-02
1.272037500000e-01 8.533932600505e-01 -5.656748966107e-02 1.466067399495e-01 5.656748966107e-02 1.466067399495e-01 5.656748966107e-02 8.533932600505e-01 -5.656748966107e-02
1.272775000000e-01 8.533749057171e-01 -5.670516019450e-02 1.466250942829e-01 5.670516019450e-02 1.466250942829e-01 5.670516019450e-02 8.533749057171e-01 -5.670516019450e-02
1.273512500000e-01 8.533565153123e-01 -5.684276093177e-02 1.466434846877e-01 5.684276093177e-02 1.466434846877e-01 5.684276093177e-02 8.533565153123e-01 -5.684276093177e-02
1.274250000000e-01 8.533380888861e-01 -5.698029196924e-02 1.466619111139e-01 5.698029196924e-02 1.466619111139e-01 5.698029196924e-02 8.533380888861e-01 -5.698029196924e-02
1.274987500000e-01 8.533196264887e-01 -5.711775340305e-02 1.466803735113e-01 5.711775340305e-02 1.466803735113e-01 5.711775340305e-02 8.533196264887e-01 -5.711775340305e-02
1.275725000000e-01 8.533011281700e-01 -5.725514532913e-02 1.466988718300e-01 5.725514532913e-02 1.466988718300e-01 5.725514532913e-02 8.533011281700e-01 -5.725514532913e-02
1.276462500000e-01 8.532825939799e-01 -5.739246784319e-02 1.467174060201e-01 5.739246784319e-02 1.467174060201e-01 5.739246784319e-02 8.532825939799e-01 -5.739246784319e-02
1.277200000000e-01 8.532640239681e-01 -5.752972104073e-02 1.467359760319e-01 5.752972104073e-02 1.467359760319e-01 5.752972104073e-02 8.532640239681e-01 -5.752972104073e-02
1.277937500000e-01 8.532454181841e-01 -5.766690501703e-02 1.467545818159e-01 5.766690501703e-02 1.467545818159e-01 5.766690501703e-02 8.532454181841e-01 -5.766690501703e-02
1.278675000000e-01 8.532267766773e-01 -5.780401986717e-02 1.467732233227e-01 5.780401986717e-02 1.467732233227e-01 5.780401986717e-02 8.532267766773e-01 -5.780401986717e-02
1.279412500000e-01 8.532080994972e-01 -5.794106568600e-02 1.467919005028e-01 5.794106568600e-02 1.467919005028e-01 5.794106568600e-02 8.532080994972e-01 -5.794106568600e-02
1.280150000000e-01 8.531893866929e-01 -5.807804256816e-02 1.468106133071e-01 5.807804256816e-02 1.468106133071e-01 5.807804256816e-02 8.531893866929e-01 -5.807804256816e-02
1.280887500000e-01 8.531706383133e-01 -5.821495060810e-02 1.468293616867e-01 5.821495060810e-02 1.468293616867e-01 5.821495060810e-02 8.531706383133e-01 -5.821495060810e-02
1.281625000000e-01 8.531518544076e-01 -5.835178990002e-02 1.468481455924e-01 5.835178990002e-02 1.468481455924e-01 5.835178990002e-02 8.531518544076e-01 -5.835178990002e-02
1.282362500000e-01 8.531330350244e-01 -5.848856053795e-02 1.468669649756e-01 5.848856053795e-02 1.468669649756e-01 5.848856053795e-02 8.531330350244e-01 -5.848856053795e-02
1.283100000000e-01 8.531141802125e-01 -5.862526261569e-02 1.468858197875e-01 5.862526261569e-02 1.468858197875e-01 5.862526261569e-02 8.531141802125e-01 -5.862526261569e-02
1.283837500000e-01 8.530952900204e-01 -5.876189622681e-02 1.469047099796e-01 5.876189622681e-02 1.469047099796e-01 5.876189622681e-02 8.530952900204e-01 -5.876189622681e-02
1.284575000000e-01 8.530763644966e-01 -5.889846146472e-02 1.469236355034e-01 5.889846146472e-02 1.469236355034e-01 5.889846146472e-02 8.530763644966e-01 -5.889846146472e-02
1.285312500000e-01 8.530574036893e-01 -5.903495842257e-02 1.469425963107e-01 5.903495842257e-02 1.469425963107e-01 5.903495842257e-02 8.530574036893e-01 -5.903495842257e-02
1.286050000000e-01 8.530384076468e-01 -5.917138719335e-02 1.469615923532e-01 5.917138719335e-02 1.469615923532e-01 5.917138719335e-02 8.530384076468e-01 -5.917138719335e-02
1.286787500000e-01 8.530193764171e-01 -5.930774786979e-02 1.469806235829e-01 5.930774786979e-02 1.469806235829e-01 5.930774786979e-02 8.530193764171e-01 -5.930774786979e-02
1.287525000000e-01 8.530003100481e-01 -5.944404054447e-02 1.469996899519e-01 5.944404054447e-02 1.469996899519e-01 5.944404054447e-02 8.530003100481e-01 -5.944404054447e-02
1.288262500000e-01 8.529812085876e-01 -5.958026530972e-02 1.470187914124e-01 5.958026530972e-02 1.470187914124e-01 5.958026530972e-02 8.529812085876e-01 -5.958026530972e-02
1.289000000000e-01 8.529620720834e-01 -5.971642225767e-02 1.470379279166e-01 5.971642225767e-02 1.470379279166e-01 5.971642225767e-02 8.529620720834e-01 -5.971642225767e-02
1.289737500000e-01 8.529429005830e-01 -5.985251148028e-02 1.470570994170e-01 5.985251148028e-02 1.470570994170e-01 5.985251148028e-02 8.529429005830e-01 -5.985251148028e-02
1.290475000000e-01 8.529236941338e-01 -5.998853306926e-02 1.470763058662e-01 5.998853306926e-02 1.470763058662e-01 5.998853306926e-02 8.529236941338e-01 -5.998853306926e-02
1.291212500000e-01 8.529044527833e-01 -6.012448711615e-02 1.470955472167e-01 6.012448711615e-02 1.470955472167e-01 6.012448711615e-02 8.529044527833e-01 -6.012448711615e-02
1.291950000000e-01 8.528851765785e-01 -6.026037371226e-02 1.471148234215e-01 6.026037371226e-02 1.471148234215e-01 6.026037371226e-02 8.528851765785e-01 -6.026037371226e-02
1.292687500000e-01 8.528658655666e-01 -6.039619294871e-02 1.471341344334e-01 6.039619294871e-02 1.471341344334e-01 6.039619294871e-02 8.528658655666e-01 -6.039619294871e-02
1.293425000000e-01 8.528465197946e-01 -6.053194491642e-02 1.471534802054e-01 6.053194491642e-02 1.471534802054e-01 6.053194491642e-02 8.528465197946e-01 -6.053194491642e-02
1.294162500000e-01 8.528271393092e-01 -6.066762970612e-02 1.471728606908e-01 6.066762970612e-02 1.471728606908e-01 6.066762970612e-02 8.528271393092e-01 -6.066762970612e-02
1.294900000000e-01 8.528077241572e-01 -6.080324740830e-02 1.471922758428e-01 6.080324740830e-02 1.471922758428e-01 6.080324740830e-02 8.528077241572e-01 -6.080324740830e-02
1.295637500000e-01 8.527882743853e-01 -6.093879811328e-02 1.472117256147e-01 6.093879811328e-02 1.472117256147e-01 6.093879811328e-02 8.527882743853e-01 -6.093879811328e-02
1.296375000000e-01 8.527687900399e-01 -6.107428191118e-02 1.472312099601e-01 6.107428191118e-02 1.472312099601e-01 6.107428191118e-02 8.527687900399e-01 -6.107428191118e-02
1.297112500000e-01 8.527492711673e-01 -6.120969889191e-02 1.472507288327e-01 6.120969889191e-02 1.472507288327e-01 6.120969889191e-02 8.527492711673e-01 -6.120969889191e-02
1.297850000000e-01 8.527297178139e-01 -6.134504914518e-02 1.472702821861e-01 6.134504914518e-02 1.472702821861e-01 6.134504914518e-02 8.527297178139e-01 -6.134504914518e-02
1.298587500000e-01 8.527101300258e-01 -6.148033276050e-02 1.472898699742e-01 6.148033276050e-02 1.472898699742e-01 6.148033276050e-02 8.527101300258e-01 -6.148033276050e-02
1.299325000000e-01 8.526905078490e-01 -6.161554982720e-02 1.473094921510e-01 6.161554982720e-02 1.473094921510e-01 6.161554982720e-02 8.526905078490e-01 -6.161554982720e-02
1.300062500000e-01 8.526708513294e-01 -6.175070043439e-02 1.473291486706e-01 6.175070043439e-02 1.473291486706e-01 6.175070043439e-02 8.526708513294e-01 -6.175070043439e-02
1.300800000000e-01 8.526511605127e-01 -6.188578467100e-02 1.473488394873e-01 6.188578467100e-02 1.473488394873e-01 6.188578467100e-02 8.526511605127e-01 -6.188578467100e-02
1.301537500000e-01 8.526314354448e-01 -6.202080262575e-02 1.473685645552e-01 6.202080262575e-02 1.473685645552e-01 6.202080262575e-02 8.526314354448e-01 -6.202080262575e-02
1.302275000000e-01 8.526116761710e-01 -6.215575438716e-02 1.473883238290e-01 6.215575438716e-02 1.473883238290e-01 6.215575438716e-02 8.526116761710e-01 -6.215575438716e-02
1.303012500000e-01 8.525918827369e-01 -6.229064004358e-02 1.474081172631e-01 6.229064004358e-02 1.474081172631e-01 6.229064004358e-02 8.525918827369e-01 -6.229064004358e-02
1.303750000000e-01 8.525720551878e-01 -6.242545968314e-02 1.474279448122e-01 6.242545968314e-02 1.474279448122e-01 6.242545968314e-02 8.525720551878e-01 -6.242545968314e-02
1.304487500000e-01 8.525521935689e-01 -6.256021339378e-02 1.474478064311e-01 6.256021339378e-02 1.474478064311e-01 6.256021339378e-02 8.525521935689e-01 -6.256021339378e-02
1.305225000000e-01 8.525322979254e-01 -6.269490126326e-02 1.474677020746e-01 6.269490126326e-02 1.474677020746e-01 6.269490126326e-02 8.525322979254e-01 -6.269490126326e-02
1.305962500000e-01 8.525123683021e-01 -6.282952337913e-02 1.474876316979e-01 6.282952337913e-02 1.474876316979e-01 6.282952337913e-02 8.525123683021e-01 -6.282952337913e-02
1.306700000000e-01 8.524924047440e-01 -6.296407982875e-02 1.475075952560e-01 6.296407982875e-02 1.475075952560e-01 6.296407982875e-02 8.524924047440e-01 -6.296407982875e-02
1.307437500000e-01 8.524724072958e-01 -6.309857069931e-02 1.475275927042e-01 6.309857069931e-02 1.475275927042e-01 6.309857069931e-02 8.524724072958e-01 -6.309857069931e-02
1.308175000000e-01 8.524523760022e-01 -6.323299607777e-02 1.475476239978e-01 6.323299607777e-02 1.475476239978e-01 6.323299607777e-02 8.524523760022e-01 -6.323299607777e-02
1.308912500000e-01 8.524323109077e-01 -6.336735605092e-02 1.475676890923e-01 6.336735605092e-02 1.475676890923e-01 6.336735605092e-02 8.524323109077e-01 -6.336735605092e-02
1.309650000000e-01 8.524122120567e-01 -6.350165070536e-02 1.475877879433e-01 6.350165070536e-02 1.475877879433e-01 6.350165070536e-02 8.524122120567e-01 -6.350165070536e-02
1.310387500000e-01 8.523920794937e-01 -6.363588012750e-02 1.476079205063e-01 6.363588012750e-02 1.476079205063e-01 6.363588012750e-02 8.523920794937e-01 -6.363588012750e-02
1.311125000000e-01 8.523719132627e-01 -6.377004440355e-02 1.476280867373e-01 6.377004440355e-02 1.476280867373e-01 6.377004440355e-02 8.523719132627e-01 -6.377004440355e-02
1.311862500000e-01 8.523517134078e-01 -6.390414361954e-02 1.476482865922e-01 6.390414361954e-02 1.476482865922e-01 6.390414361954e-02 8.523517134078e-01 -6.390414361954e-02
1.312600000000e-01 8.523314799731e-01 -6.403817786131e-02 1.476685200269e-01 6.403817786131e-02 1.476685200269e-01 6.403817786131e-02 8.523314799731e-01 -6.403817786131e-02
1.313337500000e-01 8.523112130024e-01 -6.417214721450e-02 1.476887869976e-01 6.417214721450e-02 1.476887869976e-01 6.417214721450e-02 8.523112130024e-01 -6.417214721450e-02
1.314075000000e-01 8.522909125395e-01 -6.430605176459e-02 1.477090874605e-01 6.430605176459e-02 1.477090874605e-01 6.430605176459e-02 8.522909125395e-01 -6.430605176459e-02
1.314812500000e-01 8.522705786281e-01 -6.443989159683e-02 1.477294213719e-01 6.443989159683e-02 1.477294213719e-01 6.443989159683e-02 8.522705786281e-01 -6.443989159683e-02
1.315550000000e-01 8.522502113116e-01 -6.457366679633e-02 1.477497886884e-01 6.457366679633e-02 1.477497886884e-01 6.457366679633e-02 8.522502113116e-01 -6.457366679633e-02
1.316287500000e-01 8.522298106336e-01 -6.470737744797e-02 1.477701893664e-01 6.470737744797e-02 1.477701893664e-01 6.470737744797e-02 8.522298106336e-01 -6.470737744797e-02
1.317025000000e-01 8.522093766374e-01 -6.484102363648e-02 1.477906233626e-01 6.484102363648e-02 1.477906233626e-01 6.484102363648e-02 8.522093766374e-01 -6.484102363648e-02
1.317762500000e-01 8.521889093661e-01 -6.497460544638e-02 1.478110906339e-01 6.497460544638e-02 1.478110906339e-01 6.497460544638e-02 8.521889093661e-01 -6.497460544638e-02
1.318500000000e-01 8.521684088630e-01 -6.510812296202e-02 1.478315911370e-01 6.510812296202e-02 1.478315911370e-01 6.510812296202e-02 8.521684088630e-01 -6.510812296202e-02
1.319237500000e-01 8.521478751710e-01 -6.524157626756e-02 1.478521248290e-01 6.524157626756e-02 1.478521248290e-01 6.524157626756e-02 8.521478751710e-01 -6.524157626756e-02
1.319975000000e-01 8.521273083330e-01 -6.537496544697e-02 1.478726916670e-01 6.537496544697e-02 1.478726916670e-01 6.537496544697e-02 8.521273083330e-01 -6.537496544697e-02
1.320712500000e-01 8.521067083918e-01 -6.550829058404e-02 1.478932916082e-01 6.550829058404e-02 1.478932916082e-01 6.550829058404e-02 8.521067083918e-01 -6.550829058404e-02
1.321450000000e-01 8.520860753901e-01 -6.564155176238e-02 1.479139246099e-01 6.564155176238e-02 1.479139246099e-01 6.564155176238e-02 8.520860753901e-01 -6.564155176238e-02
1.322187500000e-01 8.520654093706e-01 -6.577474906542e-02 1.479345906294e-01 6.577474906542e-02 1.479345906294e-01 6.577474906542e-02 8.520654093706e-01 -6.577474906542e-02
1.322925000000e-01 8.520447103757e-01 -6.590788257641e-02 1.479552896243e-01 6.590788257641e-02 1.479552896243e-01 6.590788257641e-02 8.520447103757e-01 -6.590788257641e-02
1.323662500000e-01 8.520239784477e-01 -6.604095237840e-02 1.479760215523e-01 6.604095237840e-02 1.479760215523e-01 6.604095237840e-02 8.520239784477e-01 -6.604095237840e-02
1.324400000000e-01 8.520032136290e-01 -6.617395855428e-02 1.479967863710e-01 6.617395855428e-02 1.479967863710e-01 6.617395855428e-02 8.520032136290e-01 -6.617395855428e-02
1.325137500000e-01 8.519824159617e-01 -6.630690118674e-02 1.480175840383e-01 6.630690118674e-02 1.480175840383e-01 6.630690118674e-02 8.519824159617e-01 -6.630690118674e-02
1.325875000000e-01 8.519615854878e-01 -6.643978035831e-02 1.480384145122e-01 6.643978035831e-02 1.480384145122e-01 6.643978035831e-02 8.519615854878e-01 -6.643978035831e-02
1.326612500000e-01 8.519407222495e-01 -6.657259615133e-02 1.480592777505e-01 6.657259615133e-02 1.480592777505e-01 6.657259615133e-02 8.519407222495e-01 -6.657259615133e-02
1.327350000000e-01 8.519198262884e-01 -6.670534864795e-02 1.480801737116e-01 6.670534864795e-02 1.480801737116e-01 6.670534864795e-02 8.519198262884e-01 -6.670534864795e-02
1.328087500000e-01 8.518988976464e-01 -6.683803793017e-02 1.481011023536e-01 6.683803793017e-02 1.481011023536e-01 6.683803793017e-02 8.518988976464e-01 -6.683803793017e-02
1.328825000000e-01 8.518779363651e-01 -6.697066407978e-02 1.481220636349e-01 6.697066407978e-02 1.481220636349e-01 6.697066407978e-02 8.518779363651e-01 -6.697066407978e-02
1.329562500000e-01 8.518569424861e-01 -6.710322717841e-02 1.481430575139e-01 6.710322717841e-02 1.481430575139e-01 6.710322717841e-02 8.518569424861e-01 -6.710322717841e-02
1.330300000000e-01 8.518359160508e-01 -6.723572730751e-02 1.481640839492e-01 6.723572730751e-02 1.481640839492e-01 6.723572730751e-02 8.518359160508e-01 -6.723572730751e-02
1.331037500000e-01 8.518148571006e-01 -6.736816454835e-02 1.481851428994e-01 6.736816454835e-02 1.481851428994e-01 6.736816454835e-02 8.518148571006e-01 -6.736816454835e-02
1.331775000000e-01 8.517937656768e-01 -6.750053898203e-02 1.482062343232e-01 6.750053898203e-02 1.482062343232e-01 6.750053898203e-02 8.517937656768e-01 -6.750053898203e-02
1.332512500000e-01 8.517726418204e-01 -6.763285068946e-02 1.482273581796e-01 6.763285068946e-02 1.482273581796e-01 6.763285068946e-02 8.517726418204e-01 -6.763285068946e-02
1.333250000000e-01 8.517514855725e-01 -6.776509975139e-02 1.482485144275e-01 6.776509975139e-02 1.482485144275e-01 6.776509975139e-02 8.517514855725e-01 -6.776509975139e-02
1.333987500000e-01 8.517302969741e-01 -6.789728624839e-02 1.482697030259e-01 6.789728624839e-02 1.482697030259e-01 6.789728624839e-02 8.517302969741e-01 -6.789728624839e-02
1.334725000000e-01 8.517090760661e-01 -6.802941026085e-02 1.482909239339e-01 6.802941026085e-02 1.482909239339e-01 6.802941026085e-02 8.517090760661e-01 -6.802941026085e-02
1.335462500000e-01 8.516878228891e-01 -6.816147186898e-02 1.483121771109e-01 6.816147186898e-02 1.483121771109e-01 6.816147186898e-02 8.516878228891e-01 -6.816147186898e-02
1.336200000000e-01 8.516665374839e-01 -6.829347115285e-02 1.483334625161e-01 6.829347115285e-02 1.483334625161e-01 6.829347115285e-02 8.516665374839e-01 -6.829347115285e-02
1.336937500000e-01 8.516452198909e-01 -6.842540819231e-02 1.483547801091e-01 6.842540819231e-02 1.483547801091e-01 6.842540819231e-02 8.516452198909e-01 -6.842540819231e-02
1.337675000000e-01 8.516238701507e-01 -6.855728306707e-02 1.483761298493e-01 6.855728306707e-02 1.483761298493e-01 6.855728306707e-02 8.516238701507e-01 -6.855728306707e-02
1.338412500000e-01 8.516024883036e-01 -6.868909585665e-02 1.483975116964e-01 6.868909585665e-02 1.483975116964e-01 6.868909585665e-02 8.516024883036e-01 -6.868909585665e-02
1.339150000000e-01 8.515810743899e-01 -6.882084664041e-02 1.484189256101e-01 6.882084664041e-02 1.484189256101e-01 6.882084664041e-02 8.515810743899e-01 -6.882084664041e-02
1.339887500000e-01 8.515596284496e-01 -6.895253549753e-02 1.484403715504e-01 6.895253549753e-02 1.484403715504e-01 6.895253549753e-02 8.515596284496e-01 -6.895253549753e-02
1.340625000000e-01 8.515381505230e-01 -6.908416250703e-02 1.484618494770e-01 6.908416250703e-02 1.484618494770e-01 6.908416250703e-02 8.515381505230e-01 -6.908416250703e-02
1.341362500000e-01 8.515166406499e-01 -6.921572774775e-02 1.484833593501e-01 6.921572774775e-02 1.484833593501e-01 6.921572774775e-02 8.515166406499e-01 -6.921572774775e-02
1.342100000000e-01 8.514950988702e-01 -6.934723129835e-02 1.485049011298e-01 6.934723129835e-02 1.485049011298e-01 6.934723129835e-02 8.514950988702e-01 -6.934723129835e-02
1.342837500000e-01 8.514735252238e-01 -6.947867323734e-02 1.485264747762e-01 6.947867323734e-02 1.485264747762e-01 6.947867323734e-02 8.514735252238e-01 -6.947867323734e-02
1.343575000000e-01 8.514519197502e-01 -6.961005364306e-02 1.485480802498e-01 6.961005364306e-02 1.485480802498e-01 6.961005364306e-02 8.514519197502e-01 -6.961005364306e-02
1.344312500000e-01 8.514302824890e-01 -6.974137259366e-02 1.485697175110e-01 6.974137259366e-02 1.485697175110e-01 6.974137259366e-02 8.514302824890e-01 -6.974137259366e-02
1.345050000000e-01 8.514086134799e-01 -6.987263016714e-02 1.485913865201e-01 6.987263016714e-02 1.485913865201e-01 6.987263016714e-02 8.514086134799e-01 -6.987263016714e-02
1.345787500000e-01 8.513869127620e-01 -7.000382644133e-02 1.486130872380e-01 7.000382644133e-02 1.486130872380e-01 7.000382644133e-02 8.513869127620e-01 -7.000382644133e-02
1.346525000000e-01 8.513651803748e-01 -7.013496149389e-02 1.486348196252e-01 7.013496149389e-02 1.486348196252e-01 7.013496149389e-02 8.513651803748e-01 -7.013496149389e-02
1.347262500000e-01 8.513434163575e-01 -7.026603540231e-02 1.486565836425e-01 7.026603540231e-02 1.486565836425e-01 7.026603540231e-02 8.513434163575e-01 -7.026603540231e-02
1.348000000000e-01 8.513216207491e-01 -7.039704824391e-02 1.486783792509e-01 7.039704824391e-02 1.486783792509e-01 7.039704824391e-02 8.513216207491e-01 -7.039704824391e-02
1.348737500000e-01 8.512997935888e-01 -7.052800009586e-02 1.487002064112e-01 7.052800009586e-02 1.487002064112e-01 7.052800009586e-02 8.512997935888e-01 -7.052800009586e-02
1.349475000000e-01 8.512779349153e-01 -7.065889103515e-02 1.487220650847e-01 7.065889103515e-02 1.487220650847e-01 7.065889103515e-02 8.512779349153e-01 -7.065889103515e-02
1.350212500000e-01 8.512560447676e-01 -7.078972113860e-02 1.487439552324e-01 7.078972113860e-02 1.487439552324e-01 7.078972113860e-02 8.512560447676e-01 -7.078972113860e-02
1.350950000000e-01 8.512341231843e-01 -7.092049048288e-02 1.487658768157e-01 7.092049048288e-02 1.487658768157e-01 7.092049048288e-02 8.512341231843e-01 -7.092049048288e-02
1.351687500000e-01 8.512121702042e-01 -7.105119914449e-02 1.487878297958e-01 7.105119914449e-02 1.487878297958e-01 7.105119914449e-02 8.512121702042e-01 -7.105119914449e-02
1.352425000000e-01 8.511901858657e-01 -7.118184719976e-02 1.488098141343e-01 7.118184719976e-02 1.488098141343e-01 7.118184719976e-02 8.511901858657e-01 -7.118184719976e-02
1.353162500000e-01 8.511681702074e-01 -7.131243472486e-02 1.488318297926e-01 7.131243472486e-02 1.488318297926e-01 7.131243472486e-02 8.511681702074e-01 -7.131243472486e-02
1.353900000000e-01 8.511461232676e-01 -7.144296179580e-02 1.488538767324e-01 7.144296179580e-02 1.488538767324e-01 7.144296179580e-02 8.511461232676e-01 -7.144296179580e-02
1.354637500000e-01 8.511240450846e-01 -7.157342848843e-02 1.488759549154e-01 7.157342848843e-02 1.488759549154e-01 7.157342848843e-02 8.511240450846e-01 -7.157342848843e-02
1.355375000000e-01 8.511019356966e-01 -7.170383487842e-02 1.488980643034e-01 7.170383487842e-02 1.488980643034e-01 7.170383487842e-02 8.511019356966e-01 -7.170383487842e-02
1.356112500000e-01 8.510797951417e-01 -7.183418104129e-02 1.489202048583e-01 7.183418104129e-02 1.489202048583e-01 7.183418104129e-02 8.510797951417e-01 -7.183418104129e-02
1.356850000000e-01 8.510576234579e-01 -7.196446705241e-02 1.489423765421e-01 7.196446705241e-02 1.489423765421e-01 7.196446705241e-02 8.510576234579e-01 -7.196446705241e-02
1.357587500000e-01 8.510354206830e-01 -7.209469298697e-02 1.489645793170e-01 7.209469298697e-02 1.489645793170e-01 7.209469298697e-02 8.510354206830e-01 -7.209469298697e-02
1.358325000000e-01 8.510131868550e-01 -7.222485892000e-02 1.489868131450e-01 7.222485892000e-02 1.489868131450e-01 7.222485892000e-02 8.510131868550e-01 -7.222485892000e-02
1.359062500000e-01 8.509909220116e-01 -7.235496492639e-02 1.490090779884e-01 7.235496492639e-02 1.490090779884e-01 7.235496492639e-02 8.509909220116e-01 -7.235496492639e-02
1.359800000000e-01 8.509686261904e-01 -7.248501108084e-02 1.490313738096e-01 7.248501108084e-02 1.490313738096e-01 7.248501108084e-02 8.509686261904e-01 -7.248501108084e-02
1.360537500000e-01 8.509462994290e-01 -7.261499745791e-02 1.490537005710e-01 7.261499745791e-02 1.490537005710e-01 7.261499745791e-02 8.509462994290e-01 -7.261499745791e-02
1.361275000000e-01 8.509239417648e-01 -7.274492413201e-02 1.490760582352e-01 7.274492413201e-02 1.490760582352e-01 7.274492413201e-02 8.509239417648e-01 -7.274492413201e-02
1.362012500000e-01 8.509015532353e-01 -7.287479117736e-02 1.490984467647e-01 7.287479117736e-02 1.490984467647e-01 7.287479117736e-02 8.509015532353e-01 -7.287479117736e-02
1.362750000000e-01 8.508791338777e-01 -7.300459866804e-02 1.491208661223e-01 7.300459866804e-02 1.491208661223e-01 7.300459866804e-02 8.508791338777e-01 -7.300459866804e-02
1.363487500000e-01 8.508566837293e-01 -7.313434667799e-02 1.491433162707e-01 7.313434667799e-02 1.491433162707e-01 7.313434667799e-02 8.508566837293e-01 -7.313434667799e-02
1.364225000000e-01 8.508342028271e-01 -7.326403528096e-02 1.491657971729e-01 7.326403528096e-02 1.491657971729e-01 7.326403528096e-02 8.508342028271e-01 -7.326403528096e-02
1.364962500000e-01 8.508116912082e-01 -7.339366455056e-02 1.491883087918e-01 7.339366455056e-02 1.491883087918e-01 7.339366455056e-02 8.508116912082e-01 -7.339366455056e-02
1.365700000000e-01 8.507891489096e-01 -7.352323456024e-02 1.492108510904e-01 7.352323456024e-02 1.492108510904e-01 7.352323456024e-02 8.507891489096e-01 -7.352323456024e-02
1.366437500000e-01 8.507665759681e-01 -7.365274538329e-02 1.492334240319e-01 7.365274538329e-02 1.492334240319e-01 7.365274538329e-02 8.507665759681e-01 -7.365274538329e-02
1.367175000000e-01 8.507439724204e-01 -7.378219709286e-02 1.492560275796e-01 7.378219709286e-02 1.492560275796e-01 7.378219709286e-02 8.507439724204e-01 -7.378219709286e-02
1.367912500000e-01 8.507213383033e-01 -7.391158976192e-02 1.492786616967e-01 7.391158976192e-02 1.492786616967e-01 7.391158976192e-02 8.507213383033e-01 -7.391158976192e-02
1.368650000000e-01 8.506986736534e-01 -7.404092346330e-02 1.493013263466e-01 7.404092346330e-02 1.493013263466e-01 7.404092346330e-02 8.506986736534e-01 -7.404092346330e-02
1.369387500000e-01 8.506759785071e-01 -7.417019826967e-02 1.493240214929e-01 7.417019826967e-02 1.493240214929e-01 7.417019826967e-02 8.506759785071e-01 -7.417019826967e-02
1.370125000000e-01 8.506532529009e-01 -7.429941425355e-02 1.493467470991e-01 7.429941425355e-02 1.493467470991e-01 7.429941425355e-02 8.506532529009e-01 -7.429941425355e-02
1.370862500000e-01 8.506304968713e-01 -7.442857148731e-02 1.493695031288e-01 7.442857148731e-02 1.493695031288e-01 7.442857148731e-02 8.506304968713e-01 -7.442857148731e-02
1.371600000000e-01 8.506077104543e-01 -7.455767004316e-02 1.493922895457e-01 7.455767004316e-02 1.493922895457e-01 7.455767004316e-02 8.506077104543e-01 -7.455767004316e-02
1.372337500000e-01 8.505848936862e-01 -7.468670999314e-02 1.494151063138e-01 7.468670999314e-02 1.494151063138e-01 7.468670999314e-02 8.505848936862e-01 -7.468670999314e-02
1.373075000000e-01 8.505620466031e-01 -7.481569140918e-02 1.494379533969e-01 7.481569140918e-02 1.494379533969e-01 7.481569140918e-02 8.505620466031e-01 -7.481569140918e-02
1.373812500000e-01 8.505391692409e-01 -7.494461436301e-02 1.494608307591e-01 7.494461436301e-02 1.494608307591e-01 7.494461436301e-02 8.505391692409e-01 -7.494461436301e-02
1.374550000000e-01 8.505162616357e-01 -7.507347892624e-02 1.494837383643e-01 7.507347892624e-02 1.494837383643e-01 7.507347892624e-02 8.505162616357e-01 -7.507347892624e-02
1.375287500000e-01 8.504933238233e-01 -7.520228517032e-02 1.495066761767e-01 7.520228517032e-02 1.495066761767e-01 7.520228517032e-02 8.504933238233e-01 -7.520228517032e-02
1.376025000000e-01 8.504703558393e-01 -7.533103316655e-02 1.495296441607e-01 7.533103316655e-02 1.495296441607e-01 7.533103316655e-02 8.504703558393e-01 -7.533103316655e-02
1.376762500000e-01 8.504473577196e-01 -7.545972298606e-02 1.495526422804e-01 7.545972298606e-02 1.495526422804e-01 7.545972298606e-02 8.504473577196e-01 -7.545972298606e-02
1.377500000000e-01 8.504243294996e-01 -7.558835469986e-02 1.495756705004e-01 7.558835469986e-02 1.495756705004e-01 7.558835469986e-02 8.504243294996e-01 -7.558835469986e-02
1.378237500000e-01 8.504012712149e-01 -7.571692837879e-02 1.495987287851e-01 7.571692837879e-02 1.495987287851e-01 7.571692837879e-02 8.504012712149e-01 -7.571692837879e-02
1.378975000000e-01 8.503781829010e-01 -7.584544409355e-02 1.496218170990e-01 7.584544409355e-02 1.496218170990e-01 7.584544409355e-02 8.503781829010e-01 -7.584544409355e-02
1.379712500000e-01 8.503550645930e-01 -7.597390191468e-02 1.496449354070e-01 7.597390191468e-02 1.496449354070e-01 7.597390191468e-02 8.503550645930e-01 -7.597390191468e-02
1.380450000000e-01 8.503319163265e-01 -7.610230191258e-02 1.496680836735e-01 7.610230191258e-02 1.496680836735e-01 7.610230191258e-02 8.503319163265e-01 -7.610230191258e-02
1.381187500000e-01 8.503087381364e-01 -7.623064415750e-02 1.496912618636e-01 7.623064415750e-02 1.496912618636e-01 7.623064415750e-02 8.503087381364e-01 -7.623064415750e-02
1.381925000000e-01 8.502855300579e-01 -7.635892871955e-02 1.497144699421e-01 7.635892871955e-02 1.497144699421e-01 7.635892871955e-02 8.502855300579e-01 -7.635892871955e-02
1.382662500000e-01 8.502622921261e-01 -7.648715566866e-02 1.497377078739e-01 7.648715566866e-02 1.497377078739e-01 7.648715566866e-02 8.502622921261e-01 -7.648715566866e-02
1.383400000000e-01 8.502390243758e-01 -7.661532507465e-02 1.497609756242e-01 7.661532507465e-02 1.497609756242e-01 7.661532507465e-02 8.502390243758e-01 -7.661532507465e-02
1.384137500000e-01 8.502157268420e-01 -7.674343700718e-02 1.497842731580e-01 7.674343700718e-02 1.497842731580e-01 7.674343700718e-02 8.502157268420e-01 -7.674343700718e-02
1.384875000000e-01 8.501923995594e-01 -7.687149153575e-02 1.498076004406e-01 7.687149153575e-02 1.498076004406e-01 7.687149153575e-02 8.501923995594e-01 -7.687149153575e-02
1.385612500000e-01 8.501690425627e-01 -7.699948872974e-02 1.498309574373e-01 7.699948872974e-02 1.498309574373e-01 7.699948872974e-02 8.501690425627e-01 -7.699948872974e-02
1.386350000000e-01 8.501456558865e-01 -7.712742865835e-02 1.498543441135e-01 7.712742865835e-02 1.498543441135e-01 7.712742865835e-02 8.501456558865e-01 -7.712742865835e-02
1.387087500000e-01 8.501222395654e-01 -7.725531139068e-02 1.498777604346e-01 7.725531139068e-02 1.498777604346e-01 7.725531139068e-02 8.501222395654e-01 -7.725531139068e-02
1.387825000000e-01 8.500987936339e-01 -7.738313699563e-02 1.499012063661e-01 7.738313699563e-02 1.499012063661e-01 7.738313699563e-02 8.500987936339e-01 -7.738313699563e-02
1.388562500000e-01 8.500753181262e-01 -7.751090554200e-02 1.499246818738e-01 7.751090554200e-02 1.499246818738e-01 7.751090554200e-02 8.500753181262e-01 -7.751090554200e-02
1.389300000000e-01 8.500518130768e-01 -7.763861709842e-02 1.499481869232e-01 7.763861709842e-02 1.499481869232e-01 7.763861709842e-02 8.500518130768e-01 -7.763861709842e-02
1.390037500000e-01 8.500282785198e-01 -7.776627173340e-02 1.499717214802e-01 7.776627173340e-02 1.499717214802e-01 7.776627173340e-02 8.500282785198e-01 -7.776627173340e-02
1.390775000000e-01 8.500047144895e-01 -7.789386951527e-02 1.499952855105e-01 7.789386951527e-02 1.499952855105e-01 7.789386951527e-02 8.500047144895e-01 -7.789386951527e-02
1.391512500000e-01 8.499811210198e-01 -7.802141051225e-02 1.500188789802e-01 7.802141051225e-02 1.500188789802e-01 7.802141051225e-02 8.499811210198e-01 -7.802141051225e-02
1.392250000000e-01 8.499574981448e-01 -7.814889479239e-02 1.500425018552e-01 7.814889479239e-02 1.500425018552e-01 7.814889479239e-02 8.499574981448e-01 -7.814889479239e-02
1.392987500000e-01 8.499338458983e-01 -7.827632242363e-02 1.500661541017e-01 7.827632242363e-02 1.500661541017e-01 7.827632242363e-02 8.499338458983e-01 -7.827632242363e-02
1.393725000000e-01 8.499101643143e-01 -7.840369347374e-02 1.500898356857e-01 7.840369347374e-02 1.500898356857e-01 7.840369347374e-02 8.499101643143e-01 -7.840369347374e-02
1.394462500000e-01 8.498864534265e-01 -7.853100801036e-02 1.501135465735e-01 7.853100801036e-02 1.501135465735e-01 7.853100801036e-02 8.498864534265e-01 -7.853100801036e-02
1.395200000000e-01 8.498627132685e-01 -7.865826610099e-02 1.501372867315e-01 7.865826610099e-02 1.501372867315e-01 7.865826610099e-02 8.498627132685e-01 -7.865826610099e-02
1.395937500000e-01 8.498389438741e-01 -7.878546781297e-02 1.501610561259e-01 7.878546781297e-02 1.501610561259e-01 7.878546781297e-02 8.498389438741e-01 -7.878546781297e-02
1.396675000000e-01 8.498151452766e-01 -7.891261321352e-02 1.501848547234e-01 7.891261321352e-02 1.501848547234e-01 7.891261321352e-02 8.498151452766e-01 -7.891261321352e-02
1.397412500000e-01 8.497913175096e-01 -7.903970236971e-02 1.502086824904e-01 7.903970236971e-02 1.502086824904e-01 7.903970236971e-02 8.497913175096e-01 -7.903970236971e-02
1.398150000000e-01 8.497674606064e-01 -7.916673534848e-02 1.502325393936e-01 7.916673534848e-02 1.502325393936e-01 7.916673534848e-02 8.497674606064e-01 -7.916673534848e-02
1.398887500000e-01 8.497435746004e-01 -7.929371221661e-02 1.502564253996e-01 7.929371221661e-02 1.502564253996e-01 7.929371221661e-02 8.497435746004e-01 -7.929371221661e-02
1.399625000000e-01 8.497196595248e-01 -7.942063304077e-02 1.502803404752e-01 7.942063304077e-02 1.502803404752e-01 7.942063304077e-02 8.497196595248e-01 -7.942063304077e-02
1.400362500000e-01 8.496957154127e-01 -7.954749788746e-02 1.503042845873e-01 7.954749788746e-02 1.503042845873e-01 7.954749788746e-02 8.496957154127e-01 -7.954749788746e-02
1.401100000000e-01 8.496717422973e-01 -7.967430682305e-02 1.503282577027e-01 7.967430682305e-02 1.503282577027e-01 7.967430682305e-02 8.496717422973e-01 -7.967430682305e-02
1.401837500000e-01 8.496477402115e-01 -7.980105991380e-02 1.503522597885e-01 7.980105991380e-02 1.503522597885e-01 7.980105991380e-02 8.496477402115e-01 -7.980105991380e-02
1.402575000000e-01 8.496237091882e-01 -7.992775722578e-02 1.503762908118e-01 7.992775722578e-02 1.503762908118e-01 7.992775722578e-02 8.496237091882e-01 -7.992775722578e-02
1.403312500000e-01 8.495996492604e-01 -8.005439882497e-02 1.504003507396e-01 8.005439882497e-02 1.504003507396e-01 8.005439882497e-02 8.495996492604e-01 -8.005439882497e-02
1.404050000000e-01 8.495755604608e-01 -8.018098477719e-02 1.504244395392e-01 8.018098477719e-02 1.504244395392e-01 8.018098477719e-02 8.495755604608e-01 -8.018098477719e-02
1.404787500000e-01 8.495514428221e-01 -8.030751514812e-02 1.504485571779e-01 8.030751514812e-02 1.504485571779e-01 8.030751514812e-02 8.495514428221e-01 -8.030751514812e-02
1.405525000000e-01 8.495272963770e-01 -8.043399000330e-02 1.504727036230e-01 8.043399000330e-02 1.504727036230e-01 8.043399000330e-02 8.495272963770e-01 -8.043399000330e-02
1.406262500000e-01 8.495031211579e-01 -8.056040940817e-02 1.504968788421e-01 8.056040940817e-02 1.504968788421e-01 8.056040940817e-02 8.495031211579e-01 -8.056040940817e-02
1.407000000000e-01 8.494789171975e-01 -8.068677342798e-02 1.505210828025e-01 8.068677342798e-02 1.505210828025e-01 8.068677342798e-02 8.494789171975e-01 -8.068677342798e-02
1.407737500000e-01 8.494546845282e-01 -8.081308212788e-02 1.505453154718e-01 8.081308212788e-02 1.505453154718e-01 8.081308212788e-02 8.494546845282e-01 -8.081308212788e-02
1.408475000000e-01 8.494304231822e-01 -8.093933557288e-02 1.505695768178e-01 8.093933557288e-02 1.505695768178e-01 8.093933557288e-02 8.494304231822e-01 -8.093933557288e-02
1.409212500000e-01 8.494061331919e-01 -8.106553382785e-02 1.505938668081e-01 8.106553382785e-02 1.505938668081e-01 8.106553382785e-02 8.494061331919e-01 -8.106553382785e-02
1.409950000000e-01 8.493818145894e-01 -8.119167695752e-02 1.506181854106e-01 8.119167695752e-02 1.506181854106e-01 8.119167695752e-02 8.493818145894e-01 -8.119167695752e-02
1.410687500000e-01 8.493574674069e-01 -8.131776502649e-02 1.506425325931e-01 8.131776502649e-02 1.506425325931e-01 8.131776502649e-02 8.493574674069e-01 -8.131776502649e-02
1.411425000000e-01 8.493330916765e-01 -8.144379809923e-02 1.506669083235e-01 8.144379809923e-02 1.506669083235e-01 8.144379809923e-02 8.493330916765e-01 -8.144379809923e-02
1.412162500000e-01 8.493086874301e-01 -8.156977624008e-02 1.506913125699e-01 8.156977624008e-02 1.506913125699e-01 8.156977624008e-02 8.493086874301e-01 -8.156977624008e-02
1.412900000000e-01 8.492842546997e-01 -8.169569951322e-02 1.507157453003e-01 8.169569951322e-02 1.507157453003e-01 8.169569951322e-02 8.492842546997e-01 -8.169569951322e-02
1.413637500000e-01 8.492597935170e-01 -8.182156798274e-02 1.507402064830e-01 8.182156798274e-02 1.507402064830e-01 8.182156798274e-02 8.492597935170e-01 -8.182156798274e-02
1.414375000000e-01 8.492353039140e-01 -8.194738171256e-02 1.507646960860e-01 8.194738171256e-02 1.507646960860e-01 8.194738171256e-02 8.492353039140e-01 -8.194738171256e-02
1.415112500000e-01 8.492107859222e-01 -8.207314076649e-02 1.507892140778e-01 8.207314076649e-02 1.507892140778e-01 8.207314076649e-02 8.492107859222e-01 -8.207314076649e-02
1.415850000000e-01 8.491862395734e-01 -8.219884520819e-02 1.508137604266e-01 8.219884520819e-02 1.508137604266e-01 8.219884520819e-02 8.491862395734e-01 -8.219884520819e-02
1.416587500000e-01 8.491616648990e-01 -8.232449510120e-02 1.508383351010e-01 8.232449510120e-02 1.508383351010e-01 8.232449510120e-02 8.491616648990e-01 -8.232449510120e-02
1.417325000000e-01 8.491370619306e-01 -8.245009050893e-02 1.508629380694e-01 8.245009050893e-02 1.508629380694e-01 8.245009050893e-02 8.491370619306e-01 -8.245009050893e-02
1.418062500000e-01 8.491124306997e-01 -8.257563149466e-02 1.508875693003e-01 8.257563149466e-02 1.508875693003e-01 8.257563149466e-02 8.491124306997e-01 -8.257563149466e-02
1.418800000000e-01 8.490877712374e-01 -8.270111812153e-02 1.509122287626e-01 8.270111812153e-02 1.509122287626e-01 8.270111812153e-02 8.490877712374e-01 -8.270111812153e-02
1.419537500000e-01 8.490630835753e-01 -8.282655045254e-02 1.509369164247e-01 8.282655045254e-02 1.509369164247e-01 8.282655045254e-02 8.490630835753e-01 -8.282655045254e-02
1.420275000000e-01 8.490383677444e-01 -8.295192855060e-02 1.509616322556e-01 8.295192855060e-02 1.509616322556e-01 8.295192855060e-02 8.490383677444e-01 -8.295192855060e-02
1.421012500000e-01 8.490136237759e-01 -8.307725247844e-02 1.509863762241e-01 8.307725247844e-02 1.509863762241e-01 8.307725247844e-02 8.490136237759e-01 -8.307725247844e-02
1.421750000000e-01 8.489888517010e-01 -8.320252229870e-02 1.510111482990e-01 8.320252229870e-02 1.510111482990e-01 8.320252229870e-02 8.489888517010e-01 -8.320252229870e-02
1.422487500000e-01 8.489640515505e-01 -8.332773807387e-02 1.510359484495e-01 8.332773807387e-02 1.510359484495e-01 8.332773807387e-02 8.489640515505e-01 -8.332773807387e-02
1.423225000000e-01 8.489392233555e-01 -8.345289986632e-02 1.510607766445e-01 8.345289986632e-02 1.510607766445e-01 8.345289986632e-02 8.489392233555e-01 -8.345289986632e-02
1.423962500000e-01 8.489143671469e-01 -8.357800773828e-02 1.510856328531e-01 8.357800773828e-02 1.510856328531e-01 8.357800773828e-02 8.489143671469e-01 -8.357800773828e-02
1.424700000000e-01 8.488894829554e-01 -8.370306175186e-02 1.511105170446e-01 8.370306175186e-02 1.511105170446e-01 8.370306175186e-02 8.488894829554e-01 -8.370306175186e-02
1.425437500000e-01 8.488645708118e-01 -8.382806196906e-02 1.511354291882e-01 8.382806196906e-02 1.511354291882e-01 8.382806196906e-02 8.488645708118e-01 -8.382806196906e-02
1.426175000000e-01 8.488396307467e-01 -8.395300845171e-02 1.511603692533e-01 8.395300845171e-02 1.511603692533e-01 8.395300845171e-02 8.488396307467e-01 -8.395300845171e-02
1.426912500000e-01 8.488146627909e-01 -8.407790126155e-02 1.511853372091e-01 8.407790126155e-02 1.511853372091e-01 8.407790126155e-02 8.488146627909e-01 -8.407790126155e-02
1.427650000000e-01 8.487896669747e-01 -8.420274046017e-02 1.512103330253e-01 8.420274046017e-02 1.512103330253e-01 8.420274046017e-02 8.487896669747e-01 -8.420274046017e-02
1.428387500000e-01 8.487646433287e-01 -8.432752610906e-02 1.512353566713e-01 8.432752610906e-02 1.512353566713e-01 8.432752610906e-02 8.487646433287e-01 -8.432752610906e-02
1.429125000000e-01 8.487395918834e-01 -8.445225826956e-02 1.512604081166e-01 8.445225826956e-02 1.512604081166e-01 8.445225826956e-02 8.487395918834e-01 -8.445225826956e-02
1.429862500000e-01 8.487145126689e-01 -8.457693700288e-02 1.512854873311e-01 8.457693700288e-02 1.512854873311e-01 8.457693700288e-02 8.487145126689e-01 -8.457693700288e-02
1.430600000000e-01 8.486894057157e-01 -8.470156237013e-02 1.513105942843e-01 8.470156237013e-02 1.513105942843e-01 8.470156237013e-02 8.486894057157e-01 -8.470156237013e-02
1.431337500000e-01 8.486642710539e-01 -8.482613443227e-02 1.513357289461e-01 8.482613443227e-02 1.513357289461e-01 8.482613443227e-02 8.486642710539e-01 -8.482613443227e-02
1.432075000000e-01 8.486391087137e-01 -8.495065325015e-02 1.513608912863e-01 8.495065325015e-02 1.513608912863e-01 8.495065325015e-02 8.486391087137e-01 -8.495065325015e-02
1.432812500000e-01 8.486139187252e-01 -8.507511888449e-02 1.513860812748e-01 8.507511888449e-02 1.513860812748e-01 8.507511888449e-02 8.486139187252e-01 -8.507511888449e-02
1.433550000000e-01 8.485887011183e-01 -8.519953139589e-02 1.514112988817e-01 8.519953139589e-02 1.514112988817e-01 8.519953139589e-02 8.485887011183e-01 -8.519953139589e-02
1.434287500000e-01 8.485634559230e-01 -8.532389084480e-02 1.514365440770e-01 8.532389084480e-02 1.514365440770e-01 8.532389084480e-02 8.485634559230e-01 -8.532389084480e-02
1.435025000000e-01 8.485381831692e-01 -8.544819729160e-02 1.514618168308e-01 8.544819729160e-02 1.514618168308e-01 8.544819729160e-02 8.485381831692e-01 -8.544819729160e-02
1.435762500000e-01 8.485128828867e-01 -8.557245079648e-02 1.514871171133e-01 8.557245079648e-02 1.514871171133e-01 8.557245079648e-02 8.485128828867e-01 -8.557245079648e-02
1.436500000000e-01 8.484875551053e-01 -8.569665141957e-02 1.515124448947e-01 8.569665141957e-02 1.515124448947e-01 8.569665141957e-02 8.484875551053e-01 -8.569665141957e-02
1.437237500000e-01 8.484621998547e-01 -8.582079922083e-02 1.515378001453e-01 8.582079922083e-02 1.515378001453e-01 8.582079922083e-02 8.484621998547e-01 -8.582079922083e-02
1.437975000000e-01 8.484368171645e-01 -8.594489426012e-02 1.515631828355e-01 8.594489426012e-02 1.515631828355e-01 8.594489426012e-02 8.484368171645e-01 -8.594489426012e-02
1.438712500000e-01 8.484114070642e-01 -8.606893659718e-02 1.515885929358e-01 8.606893659718e-02 1.515885929358e-01 8.606893659718e-02 8.484114070642e-01 -8.606893659718e-02
1.439450000000e-01 8.483859695833e-01 -8.619292629160e-02 1.516140304167e-01 8.619292629160e-02 1.516140304167e-01 8.619292629160e-02 8.483859695833e-01 -8.619292629160e-02
1.440187500000e-01 8.483605047514e-01 -8.631686340289e-02 1.516394952486e-01 8.631686340289e-02 1.516394952486e-01 8.631686340289e-02 8.483605047514e-01 -8.631686340289e-02
1.440925000000e-01 8.483350125977e-01 -8.644074799041e-02 1.516649874023e-01 8.644074799041e-02 1.516649874023e-01 8.644074799041e-02 8.483350125977e-01 -8.644074799041e-02
1.441662500000e-01 8.483094931516e-01 -8.656458011340e-02 1.516905068484e-01 8.656458011340e-02 1.516905068484e-01 8.656458011340e-02 8.483094931516e-01 -8.656458011340e-02
1.442400000000e-01 8.482839464424e-01 -8.668835983099e-02 1.517160535576e-01 8.668835983099e-02 1.517160535576e-01 8.668835983099e-02 8.482839464424e-01 -8.668835983099e-02
1.443137500000e-01 8.482583724991e-01 -8.681208720219e-02 1.517416275009e-01 8.681208720219e-02 1.517416275009e-01 8.681208720219e-02 8.482583724991e-01 -8.681208720219e-02
1.443875000000e-01 8.482327713510e-01 -8.693576228588e-02 1.517672286490e-01 8.693576228588e-02 1.517672286490e-01 8.693576228588e-02 8.482327713510e-01 -8.693576228588e-02
1.444612500000e-01 8.482071430270e-01 -8.705938514083e-02 1.517928569730e-01 8.705938514083e-02 1.517928569730e-01 8.705938514083e-02 8.482071430270e-01 -8.705938514083e-02
1.445350000000e-01 8.481814875563e-01 -8.718295582567e-02 1.518185124437e-01 8.718295582567e-02 1.518185124437e-01 8.718295582567e-02 8.481814875563e-01 -8.718295582567e-02
1.446087500000e-01 8.481558049676e-01 -8.730647439893e-02 1.518441950324e-01 8.730647439893e-02 1.518441950324e-01 8.730647439893e-02 8.481558049676e-01 -8.730647439893e-02
1.446825000000e-01 8.481300952900e-01 -8.742994091903e-02 1.518699047100e-01 8.742994091903e-02 1.518699047100e-01 8.742994091903e-02 8.481300952900e-01 -8.742994091903e-02
1.447562500000e-01 8.481043585521e-01 -8.755335544424e-02 1.518956414479e-01 8.755335544424e-02 1.518956414479e-01 8.755335544424e-02 8.481043585521e-01 -8.755335544424e-02
1.448300000000e-01 8.480785947829e-01 -8.767671803275e-02 1.519214052171e-01 8.767671803275e-02 1.519214052171e-01 8.767671803275e-02 8.480785947829e-01 -8.767671803275e-02
1.449037500000e-01 8.480528040109e-01 -8.780002874258e-02 1.519471959891e-01 8.780002874258e-02 1.519471959891e-01 8.780002874258e-02 8.480528040109e-01 -8.780002874258e-02
1.449775000000e-01 8.480269862647e-01 -8.792328763169e-02 1.519730137353e-01 8.792328763169e-02 1.519730137353e-01 8.792328763169e-02 8.480269862647e-01 -8.792328763169e-02
1.450512500000e-01 8.480011415730e-01 -8.804649475789e-02 1.519988584270e-01 8.804649475789e-02 1.519988584270e-01 8.804649475789e-02 8.480011415730e-01 -8.804649475789e-02
1.451250000000e-01 8.479752699643e-01 -8.816965017886e-02 1.520247300357e-01 8.816965017886e-02 1.520247300357e-01 8.816965017886e-02 8.479752699643e-01 -8.816965017886e-02
1.451987500000e-01 8.479493714670e-01 -8.829275395220e-02 1.520506285330e-01 8.829275395220e-02 1.520506285330e-01 8.829275395220e-02 8.479493714670e-01 -8.829275395220e-02
1.452725000000e-01 8.479234461094e-01 -8.841580613537e-02 1.520765538906e-01 8.841580613537e-02 1.520765538906e-01 8.841580613537e-02 8.479234461094e-01 -8.841580613537e-02
1.453462500000e-01 8.478974939200e-01 -8.853880678571e-02 1.521025060800e-01 8.853880678571e-02 1.521025060800e-01 8.853880678571e-02 8.478974939200e-01 -8.853880678571e-02
1.454200000000e-01 8.478715149270e-01 -8.866175596045e-02 1.521284850730e-01 8.866175596045e-02 1.521284850730e-01 8.866175596045e-02 8.478715149270e-01 -8.866175596045e-02
1.454937500000e-01 8.478455091585e-01 -8.878465371672e-02 1.521544908415e-01 8.878465371672e-02 1.521544908415e-01 8.878465371672e-02 8.478455091585e-01 -8.878465371672e-02
1.455675000000e-01 8.478194766428e-01 -8.890750011150e-02 1.521805233572e-01 8.890750011150e-02 1.521805233572e-01 8.890750011150e-02 8.478194766428e-01 -8.890750011150e-02
1.456412500000e-01 8.477934174080e-01 -8.903029520169e-02 1.522065825920e-01 8.903029520169e-02 1.522065825920e-01 8.903029520169e-02 8.477934174080e-01 -8.903029520169e-02
1.457150000000e-01 8.477673314819e-01 -8.915303904405e-02 1.522326685181e-01 8.915303904405e-02 1.522326685181e-01 8.915303904405e-02 8.477673314819e-01 -8.915303904405e-02
1.457887500000e-01 8.477412188928e-01 -8.927573169523e-02 1.522587811072e-01 8.927573169523e-02 1.522587811072e-01 8.927573169523e-02 8.477412188928e-01 -8.927573169523e-02
1.458625000000e-01 8.477150796683e-01 -8.939837321178e-02 1.522849203317e-01 8.939837321178e-02 1.522849203317e-01 8.939837321178e-02 8.477150796683e-01 -8.939837321178e-02
1.459362500000e-01 8.476889138365e-01 -8.952096365012e-02 1.523110861635e-01 8.952096365011e-02 1.523110861635e-01 8.952096365011e-02 8.476889138365e-01 -8.952096365012e-02
1.460100000000e-01 8.476627214250e-01 -8.964350306655e-02 1.523372785750e-01 8.964350306655e-02 1.523372785750e-01 8.964350306655e-02 8.476627214250e-01 -8.964350306655e-02
1.460837500000e-01 8.476365024617e-01 -8.976599151729e-02 1.523634975383e-01 8.976599151729e-02 1.523634975383e-01 8.976599151729e-02 8.476365024617e-01 -8.976599151729e-02
1.461575000000e-01 8.476102569742e-01 -8.988842905841e-02 1.523897430258e-01 8.988842905841e-02 1.523897430258e-01 8.988842905841e-02 8.476102569742e-01 -8.988842905841e-02
1.462312500000e-01 8.475839849901e-01 -9.001081574588e-02 1.524160150099e-01 9.001081574588e-02 1.524160150099e-01 9.001081574588e-02 8.475839849901e-01 -9.001081574588e-02
1.463050000000e-01 8.475576865370e-01 -9.013315163556e-02 1.524423134630e-01 9.013315163556e-02 1.524423134630e-01 9.013315163556e-02 8.475576865370e-01 -9.013315163556e-02
1.463787500000e-01 8.475313616424e-01 -9.025543678320e-02 1.524686383576e-01 9.025543678320e-02 1.524686383576e-01 9.025543678320e-02 8.475313616424e-01 -9.025543678320e-02
1.464525000000e-01 8.475050103337e-01 -9.037767124443e-02 1.524949896663e-01 9.037767124443e-02 1.524949896663e-01 9.037767124443e-02 8.475050103337e-01 -9.037767124443e-02
1.465262500000e-01 8.474786326384e-01 -9.049985507476e-02 1.525213673616e-01 9.049985507476e-02 1.525213673616e-01 9.049985507476e-02 8.474786326384e-01 -9.049985507476e-02
1.466000000000e-01 8.474522285837e-01 -9.062198832961e-02 1.525477714163e-01 9.062198832961e-02 1.525477714163e-01 9.062198832961e-02 8.474522285837e-01 -9.062198832961e-02
1.466737500000e-01 8.474257981970e-01 -9.074407106428e-02 1.525742018030e-01 9.074407106428e-02 1.525742018030e-01 9.074407106428e-02 8.474257981970e-01 -9.074407106428e-02
1.467475000000e-01 8.473993415054e-01 -9.086610333395e-02 1.526006584946e-01 9.086610333395e-02 1.526006584946e-01 9.086610333395e-02 8.473993415054e-01 -9.086610333395e-02
1.468212500000e-01 8.473728585362e-01 -9.098808519369e-02 1.526271414638e-01 9.098808519369e-02 1.526271414638e-01 9.098808519369e-02 8.473728585362e-01 -9.098808519369e-02
1.468950000000e-01 8.473463493164e-01 -9.111001669847e-02 1.526536506836e-01 9.111001669847e-02 1.526536506836e-01 9.111001669847e-02 8.473463493164e-01 -9.111001669847e-02
1.469687500000e-01 8.473198138731e-01 -9.123189790315e-02 1.526801861269e-01 9.123189790315e-02 1.526801861269e-01 9.123189790315e-02 8.473198138731e-01 -9.123189790315e-02
1.470425000000e-01 8.472932522332e-01 -9.135372886246e-02 1.527067477668e-01 9.135372886246e-02 1.527067477668e-01 9.135372886246e-02 8.472932522332e-01 -9.135372886246e-02
1.471162500000e-01 8.472666644238e-01 -9.147550963105e-02 1.527333355762e-01 9.147550963105e-02 1.527333355762e-01 9.147550963105e-02 8.472666644238e-01 -9.147550963105e-02
1.471900000000e-01 8.472400504717e-01 -9.159724026342e-02 1.527599495283e-01 9.159724026342e-02 1.527599495283e-01 9.159724026342e-02 8.472400504717e-01 -9.159724026342e-02
1.472637500000e-01 8.472134104037e-01 -9.171892081401e-02 1.527865895963e-01 9.171892081401e-02 1.527865895963e-01 9.171892081401e-02 8.472134104037e-01 -9.171892081401e-02
1.473375000000e-01 8.471867442466e-01 -9.184055133711e-02 1.528132557534e-01 9.184055133711e-02 1.528132557534e-01 9.184055133711e-02 8.471867442466e-01 -9.184055133711e-02
1.474112500000e-01 8.471600520272e-01 -9.196213188692e-02 1.528399479728e-01 9.196213188692e-02 1.528399479728e-01 9.196213188692e-02 8.471600520272e-01 -9.196213188692e-02
1.474850000000e-01 8.471333337720e-01 -9.208366251753e-02 1.528666662280e-01 9.208366251753e-02 1.528666662280e-01 9.208366251753e-02 8.471333337720e-01 -9.208366251753e-02
1.475587500000e-01 8.471065895077e-01 -9.220514328292e-02 1.528934104923e-01 9.220514328292e-02 1.528934104923e-01 9.220514328292e-02 8.471065895077e-01 -9.220514328292e-02
1.476325000000e-01 8.470798192608e-01 -9.232657423696e-02 1.529201807392e-01 9.232657423696e-02 1.529201807392e-01 9.232657423696e-02 8.470798192608e-01 -9.232657423696e-02
1.477062500000e-01 8.470530230579e-01 -9.244795543341e-02 1.529469769421e-01 9.244795543341e-02 1.529469769421e-01 9.244795543341e-02 8.470530230579e-01 -9.244795543341e-02
1.477800000000e-01 8.470262009254e-01 -9.256928692592e-02 1.529737990746e-01 9.256928692592e-02 1.529737990746e-01 9.256928692592e-02 8.470262009254e-01 -9.256928692592e-02
1.478537500000e-01 8.469993528896e-01 -9.269056876805e-02 1.530006471104e-01 9.269056876805e-02 1.530006471104e-01 9.269056876805e-02 8.469993528896e-01 -9.269056876805e-02
1.479275000000e-01 8.469724789769e-01 -9.281180101324e-02 1.530275210231e-01 9.281180101324e-02 1.530275210231e-01 9.281180101324e-02 8.469724789769e-01 -9.281180101324e-02
1.480012500000e-01 8.469455792137e-01 -9.293298371482e-02 1.530544207863e-01 9.293298371482e-02 1.530544207863e-01 9.293298371482e-02 8.469455792137e-01 -9.293298371482e-02
1.480750000000e-01 8.469186536260e-01 -9.305411692603e-02 1.530813463740e-01 9.305411692603e-02 1.530813463740e-01 9.305411692603e-02 8.469186536260e-01 -9.305411692603e-02
1.481487500000e-01 8.468917022402e-01 -9.317520069997e-02 1.531082977598e-01 9.317520069997e-02 1.531082977598e-01 9.317520069997e-02 8.468917022402e-01 -9.317520069997e-02
1.482225000000e-01 8.468647250822e-01 -9.329623508967e-02 1.531352749178e-01 9.329623508967e-02 1.531352749178e-01 9.329623508967e-02 8.468647250822e-01 -9.329623508967e-02
1.482962500000e-01 8.468377221782e-01 -9.341722014804e-02 1.531622778218e-01 9.341722014804e-02 1.531622778218e-01 9.341722014804e-02 8.468377221782e-01 -9.341722014804e-02
1.483700000000e-01 8.468106935542e-01 -9.353815592787e-02 1.531893064458e-01 9.353815592787e-02 1.531893064458e-01 9.353815592787e-02 8.468106935542e-01 -9.353815592787e-02
1.484437500000e-01 8.467836392362e-01 -9.365904248188e-02 1.532163607638e-01 9.365904248188e-02 1.532163607638e-01 9.365904248188e-02 8.467836392362e-01 -9.365904248188e-02
1.485175000000e-01 8.467565592501e-01 -9.377987986265e-02 1.532434407499e-01 9.377987986265e-02 1.532434407499e-01 9.377987986265e-02 8.467565592501e-01 -9.377987986265e-02
1.485912500000e-01 8.467294536216e-01 -9.390066812268e-02 1.532705463784e-01 9.390066812268e-02 1.532705463784e-01 9.390066812268e-02 8.467294536216e-01 -9.390066812268e-02
1.486650000000e-01 8.467023223767e-01 -9.402140731434e-02 1.532976776233e-01 9.402140731434e-02 1.532976776233e-01 9.402140731434e-02 8.467023223767e-01 -9.402140731434e-02
1.487387500000e-01 8.466751655410e-01 -9.414209748992e-02 1.533248344590e-01 9.414209748992e-02 1.533248344590e-01 9.414209748992e-02 8.466751655410e-01 -9.414209748992e-02
1.488125000000e-01 8.466479831404e-01 -9.426273870159e-02 1.533520168596e-01 9.426273870159e-02 1.533520168596e-01 9.426273870159e-02 8.466479831404e-01 -9.426273870159e-02
1.488862500000e-01 8.466207752003e-01 -9.438333100143e-02 1.533792247997e-01 9.438333100143e-02 1.533792247997e-01 9.438333100143e-02 8.466207752003e-01 -9.438333100143e-02
1.489600000000e-01 8.465935417465e-01 -9.450387444141e-02 1.534064582535e-01 9.450387444141e-02 1.534064582535e-01 9.450387444141e-02 8.465935417465e-01 -9.450387444141e-02
1.490337500000e-01 8.465662828044e-01 -9.462436907338e-02 1.534337171956e-01 9.462436907338e-02 1.534337171956e-01 9.462436907338e-02 8.465662828044e-01 -9.462436907338e-02
1.491075000000e-01 8.465389983995e-01 -9.474481494912e-02 1.534610016005e-01 9.474481494912e-02 1.534610016005e-01 9.474481494912e-02 8.465389983995e-01 -9.474481494912e-02
1.491812500000e-01 8.465116885574e-01 -9.486521212027e-02 1.534883114426e-01 9.486521212027e-02 1.534883114426e-01 9.486521212027e-02 8.465116885574e-01 -9.486521212027e-02
1.492550000000e-01 8.464843533033e-01 -9.498556063841e-02 1.535156466967e-01 9.498556063841e-02 1.535156466967e-01 9.498556063841e-02 8.464843533033e-01 -9.498556063841e-02
1.493287500000e-01 8.464569926627e-01 -9.510586055498e-02 1.535430073373e-01 9.510586055498e-02 1.535430073373e-01 9.510586055498e-02 8.464569926627e-01 -9.510586055498e-02
1.494025000000e-01 8.464296066607e-01 -9.522611192134e-02 1.535703933393e-01 9.522611192134e-02 1.535703933393e-01 9.522611192134e-02 8.464296066607e-01 -9.522611192134e-02
1.494762500000e-01 8.464021953227e-01 -9.534631478873e-02 1.535978046773e-01 9.534631478873e-02 1.535978046773e-01 9.534631478873e-02 8.464021953227e-01 -9.534631478873e-02
1.495500000000e-01 8.463747586738e-01 -9.546646920832e-02 1.536252413262e-01 9.546646920832e-02 1.536252413262e-01 9.546646920832e-02 8.463747586738e-01 -9.546646920832e-02
1.496237500000e-01 8.463472967392e-01 -9.558657523113e-02 1.536527032608e-01 9.558657523113e-02 1.536527032608e-01 9.558657523113e-02 8.463472967392e-01 -9.558657523113e-02
1.496975000000e-01 8.463198095439e-01 -9.570663290813e-02 1.536801904561e-01 9.570663290813e-02 1.536801904561e-01 9.570663290813e-02 8.463198095439e-01 -9.570663290813e-02
1.497712500000e-01 8.462922971130e-01 -9.582664229015e-02 1.537077028870e-01 9.582664229015e-02 1.537077028870e-01 9.582664229015e-02 8.462922971130e-01 -9.582664229015e-02
1.498450000000e-01 8.462647594715e-01 -9.594660342794e-02 1.537352405285e-01 9.594660342794e-02 1.537352405285e-01 9.594660342794e-02 8.462647594715e-01 -9.594660342794e-02
1.499187500000e-01 8.462371966443e-01 -9.606651637215e-02 1.537628033557e-01 9.606651637215e-02 1.537628033557e-01 9.606651637215e-02 8.462371966443e-01 -9.606651637215e-02
1.499925000000e-01 8.462096086562e-01 -9.618638117332e-02 1.537903913438e-01 9.618638117332e-02 1.537903913438e-01 9.618638117332e-02 8.462096086562e-01 -9.618638117332e-02
1.500662500000e-01 8.461819955322e-01 -9.630619788190e-02 1.538180044678e-01 9.630619788190e-02 1.538180044678e-01 9.630619788190e-02 8.461819955322e-01 -9.630619788190e-02
1.501400000000e-01 8.461543572970e-01 -9.642596654822e-02 1.538456427030e-01 9.642596654822e-02 1.538456427030e-01 9.642596654822e-02 8.461543572970e-01 -9.642596654822e-02
1.502137500000e-01 8.461266939753e-01 -9.654568722255e-02 1.538733060247e-01 9.654568722255e-02 1.538733060247e-01 9.654568722255e-02 8.461266939753e-01 -9.654568722255e-02
1.502875000000e-01 8.460990055918e-01 -9.666535995501e-02 1.539009944082e-01 9.666535995501e-02 1.539009944082e-01 9.666535995501e-02 8.460990055918e-01 -9.666535995501e-02
1.503612500000e-01 8.460712921712e-01 -9.678498479567e-02 1.539287078288e-01 9.678498479567e-02 1.539287078288e-01 9.678498479567e-02 8.460712921712e-01 -9.678498479567e-02
1.504350000000e-01 8.460435537381e-01 -9.690456179446e-02 1.539564462619e-01 9.690456179446e-02 1.539564462619e-01 9.690456179446e-02 8.460435537381e-01 -9.690456179446e-02
1.505087500000e-01 8.460157903170e-01 -9.702409100124e-02 1.539842096830e-01 9.702409100124e-02 1.539842096830e-01 9.702409100124e-02 8.460157903170e-01 -9.702409100124e-02
1.505825000000e-01 8.459880019323e-01 -9.714357246576e-02 1.540119980677e-01 9.714357246576e-02 1.540119980677e-01 9.714357246576e-02 8.459880019323e-01 -9.714357246576e-02
1.506562500000e-01 8.459601886086e-01 -9.726300623767e-02 1.540398113914e-01 9.726300623767e-02 1.540398113914e-01 9.726300623767e-02 8.459601886086e-01 -9.726300623767e-02
1.507300000000e-01 8.459323503702e-01 -9.738239236653e-02 1.540676496298e-01 9.738239236653e-02 1.540676496298e-01 9.738239236653e-02 8.459323503702e-01 -9.738239236653e-02
1.508037500000e-01 8.459044872415e-01 -9.750173090180e-02 1.540955127585e-01 9.750173090180e-02 1.540955127585e-01 9.750173090180e-02 8.459044872415e-01 -9.750173090180e-02
1.508775000000e-01 8.458765992467e-01 -9.762102189284e-02 1.541234007533e-01 9.762102189284e-02 1.541234007533e-01 9.762102189284e-02 8.458765992467e-01 -9.762102189284e-02
1.509512500000e-01 8.458486864102e-01 -9.774026538891e-02 1.541513135898e-01 9.774026538891e-02 1.541513135898e-01 9.774026538891e-02 8.458486864102e-01 -9.774026538891e-02
1.510250000000e-01 8.458207487561e-01 -9.785946143918e-02 1.541792512439e-01 9.785946143918e-02 1.541792512439e-01 9.785946143918e-02 8.458207487561e-01 -9.785946143918e-02
1.510987500000e-01 8.457927863086e-01 -9.797861009272e-02 1.542072136914e-01 9.797861009272e-02 1.542072136914e-01 9.797861009272e-02 8.457927863086e-01 -9.797861009272e-02
1.511725000000e-01 8.457647990918e-01 -9.809771139850e-02 1.542352009082e-01 9.809771139850e-02 1.542352009082e-01 9.809771139850e-02 8.457647990918e-01 -9.809771139850e-02
1.512462500000e-01 8.457367871297e-01 -9.821676540540e-02 1.542632128703e-01 9.821676540540e-02 1.542632128703e-01 9.821676540540e-02 8.457367871297e-01 -9.821676540540e-02
1.513200000000e-01 8.457087504464e-01 -9.833577216221e-02 1.542912495536e-01 9.833577216221e-02 1.542912495536e-01 9.833577216221e-02 8.457087504464e-01 -9.833577216221e-02
1.513937500000e-01 8.456806890658e-01 -9.845473171760e-02 1.543193109342e-01 9.845473171760e-02 1.543193109342e-01 9.845473171760e-02 8.456806890658e-01 -9.845473171760e-02
1.514675000000e-01 8.456526030119e-01 -9.857364412017e-02 1.543473969881e-01 9.857364412017e-02 1.543473969881e-01 9.857364412017e-02 8.456526030119e-01 -9.857364412017e-02
1.515412500000e-01 8.456244923085e-01 -9.869250941841e-02 1.543755076915e-01 9.869250941841e-02 1.543755076915e-01 9.869250941841e-02 8.456244923085e-01 -9.869250941841e-02
1.516150000000e-01 8.455963569794e-01 -9.881132766073e-02 1.544036430206e-01 9.881132766073e-02 1.544036430206e-01 9.881132766073e-02 8.455963569794e-01 -9.881132766073e-02
1.516887500000e-01 8.455681970485e-01 -9.893009889542e-02 1.544318029515e-01 9.893009889542e-02 1.544318029515e-01 9.893009889542e-02 8.455681970485e-01 -9.893009889542e-02
1.517625000000e-01 8.455400125394e-01 -9.904882317071e-02 1.544599874606e-01 9.904882317071e-02 1.544599874606e-01 9.904882317071e-02 8.455400125394e-01 -9.904882317071e-02
1.518362500000e-01 8.455118034759e-01 -9.916750053469e-02 1.544881965241e-01 9.916750053469e-02 1.544881965241e-01 9.916750053469e-02 8.455118034759e-01 -9.916750053469e-02
1.519100000000e-01 8.454835698815e-01 -9.928613103541e-02 1.545164301185e-01 9.928613103541e-02 1.545164301185e-01 9.928613103541e-02 8.454835698815e-01 -9.928613103541e-02
1.519837500000e-01 8.454553117800e-01 -9.940471472077e-02 1.545446882200e-01 9.940471472077e-02 1.545446882200e-01 9.940471472077e-02 8.454553117800e-01 -9.940471472077e-02
1.520575000000e-01 8.454270291947e-01 -9.952325163863e-02 1.545729708053e-01 9.952325163863e-02 1.545729708053e-01 9.952325163863e-02 8.454270291947e-01 -9.952325163863e-02
1.521312500000e-01 8.453987221494e-01 -9.964174183671e-02 1.546012778506e-01 9.964174183671e-02 1.546012778506e-01 9.964174183671e-02 8.453987221494e-01 -9.964174183671e-02
1.522050000000e-01 8.453703906673e-01 -9.976018536267e-02 1.546296093327e-01 9.976018536267e-02 1.546296093327e-01 9.976018536267e-02 8.453703906673e-01 -9.976018536267e-02
1.522787500000e-01 8.453420347719e-01 -9.987858226405e-02 1.546579652281e-01 9.987858226405e-02 1.546579652281e-01 9.987858226405e-02 8.453420347719e-01 -9.987858226405e-02
1.523525000000e-01 8.453136544865e-01 -9.999693258833e-02 1.546863455135e-01 9.999693258833e-02 1.546863455135e-01 9.999693258833e-02 8.453136544865e-01 -9.999693258833e-02
1.524262500000e-01 8.452852498346e-01 -1.001152363829e-01 1.547147501654e-01 1.001152363829e-01 1.547147501654e-01 1.001152363829e-01 8.452852498346e-01 -1.001152363829e-01
1.525000000000e-01 8.452568208393e-01 -1.002334936949e-01 1.547431791607e-01 1.002334936949e-01 1.547431791607e-01 1.002334936949e-01 8.452568208393e-01 -1.002334936949e-01
1.525737500000e-01 8.452283675240e-01 -1.003517045717e-01 1.547716324760e-01 1.003517045717e-01 1.547716324760e-01 1.003517045717e-01 8.452283675240e-01 -1.003517045717e-01
1.526475000000e-01 8.451998899117e-01 -1.004698690603e-01 1.548001100883e-01 1.004698690603e-01 1.548001100883e-01 1.004698690603e-01 8.451998899117e-01 -1.004698690603e-01
1.527212500000e-01 8.451713880256e-01 -1.005879872077e-01 1.548286119744e-01 1.005879872077e-01 1.548286119744e-01 1.005879872077e-01 8.451713880256e-01 -1.005879872077e-01
1.527950000000e-01 8.451428618889e-01 -1.007060590609e-01 1.548571381111e-01 1.007060590609e-01 1.548571381111e-01 1.007060590609e-01 8.451428618889e-01 -1.007060590609e-01
1.528687500000e-01 8.451143115246e-01 -1.008240846665e-01 1.548856884754e-01 1.008240846665e-01 1.548856884754e-01 1.008240846665e-01 8.451143115246e-01 -1.008240846665e-01
1.529425000000e-01 8.450857369556e-01 -1.009420640714e-01 1.549142630444e-01 1.009420640714e-01 1.549142630444e-01 1.009420640714e-01 8.450857369556e-01 -1.009420640714e-01
1.530162500000e-01 8.450571382050e-01 -1.010599973223e-01 1.549428617950e-01 1.010599973223e-01 1.549428617950e-01 1.010599973223e-01 8.450571382050e-01 -1.010599973223e-01
1.530900000000e-01 8.450285152957e-01 -1.011778844655e-01 1.549714847043e-01 1.011778844655e-01 1.549714847043e-01 1.011778844655e-01 8.450285152957e-01 -1.011778844655e-01
1.531637500000e-01 8.449998682505e-01 -1.012957255477e-01 1.550001317495e-01 1.012957255477e-01 1.550001317495e-01 1.012957255477e-01 8.449998682505e-01 -1.012957255477e-01
1.532375000000e-01 8.449711970923e-01 -1.014135206151e-01 1.550288029077e-01 1.014135206151e-01 1.550288029077e-01 1.014135206151e-01 8.449711970923e-01 -1.014135206151e-01
1.533112500000e-01 8.449425018438e-01 -1.015312697140e-01 1.550574981562e-01 1.015312697140e-01 1.550574981562e-01 1.015312697140e-01 8.449425018438e-01 -1.015312697140e-01
1.533850000000e-01 8.449137825279e-01 -1.016489728907e-01 1.550862174721e-01 1.016489728907e-01 1.550862174721e-01 1.016489728907e-01 8.449137825279e-01 -1.016489728907e-01
1.534587500000e-01 8.448850391672e-01 -1.017666301912e-01 1.551149608328e-01 1.017666301912e-01 1.551149608328e-01 1.017666301912e-01 8.448850391672e-01 -1.017666301912e-01
1.535325000000e-01 8.448562717844e-01 -1.018842416614e-01 1.551437282156e-01 1.018842416614e-01 1.551437282156e-01 1.018842416614e-01 8.448562717844e-01 -1.018842416614e-01
1.536062500000e-01 8.448274804020e-01 -1.020018073474e-01 1.551725195980e-01 1.020018073474e-01 1.551725195980e-01 1.020018073474e-01 8.448274804020e-01 -1.020018073474e-01
1.536800000000e-01 8.447986650428e-01 -1.021193272950e-01 1.552013349572e-01 1.021193272950e-01 1.552013349572e-01 1.021193272950e-01 8.447986650428e-01 -1.021193272950e-01
1.537537500000e-01 8.447698257291e-01 -1.022368015498e-01 1.552301742709e-01 1.022368015498e-01 1.552301742709e-01 1.022368015498e-01 8.447698257291e-01 -1.022368015498e-01
1.538275000000e-01 8.447409624835e-01 -1.023542301576e-01 1.552590375165e-01 1.023542301576e-01 1.552590375165e-01 1.023542301576e-01 8.447409624835e-01 -1.023542301576e-01
1.539012500000e-01 8.447120753284e-01 -1.024716131639e-01 1.552879246716e-01 1.024716131639e-01 1.552879246716e-01 1.024716131639e-01 8.447120753284e-01 -1.024716131639e-01
1.539750000000e-01 8.446831642863e-01 -1.025889506141e-01 1.553168357137e-01 1.025889506141e-01 1.553168357137e-01 1.025889506141e-01 8.446831642863e-01 -1.025889506141e-01
1.540487500000e-01 8.446542293795e-01 -1.027062425537e-01 1.553457706205e-01 1.027062425537e-01 1.553457706205e-01 1.027062425537e-01 8.446542293795e-01 -1.027062425537e-01
1.541225000000e-01 8.446252706302e-01 -1.028234890280e-01 1.553747293698e-01 1.028234890280e-01 1.553747293698e-01 1.028234890280e-01 8.446252706302e-01 -1.028234890280e-01
1.541962500000e-01 8.445962880608e-01 -1.029406900821e-01 1.554037119392e-01 1.029406900821e-01 1.554037119392e-01 1.029406900821e-01 8.445962880608e-01 -1.029406900821e-01
1.542700000000e-01 8.445672816936e-01 -1.030578457612e-01 1.554327183064e-01 1.030578457612e-01 1.554327183064e-01 1.030578457612e-01 8.445672816936e-01 -1.030578457612e-01
1.543437500000e-01 8.445382515506e-01 -1.031749561103e-01 1.554617484494e-01 1.031749561103e-01 1.554617484494e-01 1.031749561103e-01 8.445382515506e-01 -1.031749561103e-01
1.544175000000e-01 8.445091976541e-01 -1.032920211743e-01 1.554908023459e-01 1.032920211743e-01 1.554908023459e-01 1.032920211743e-01 8.445091976541e-01 -1.032920211743e-01
1.544912500000e-01 8.444801200262e-01 -1.034090409982e-01 1.555198799738e-01 1.034090409982e-01 1.555198799738e-01 1.034090409982e-01 8.444801200262e-01 -1.034090409982e-01
1.545650000000e-01 8.444510186888e-01 -1.035260156266e-01 1.555489813112e-01 1.035260156266e-01 1.555489813112e-01 1.035260156266e-01 8.444510186888e-01 -1.035260156266e-01
1.546387500000e-01 8.444218936642e-01 -1.036429451044e-01 1.555781063358e-01 1.036429451044e-01 1.555781063358e-01 1.036429451044e-01 8.444218936642e-01 -1.036429451044e-01
1.547125000000e-01 8.443927449741e-01 -1.037598294760e-01 1.556072550259e-01 1.037598294760e-01 1.556072550259e-01 1.037598294760e-01 8.443927449741e-01 -1.037598294760e-01
1.547862500000e-01 8.443635726407e-01 -1.038766687860e-01 1.556364273593e-01 1.038766687860e-01 1.556364273593e-01 1.038766687860e-01 8.443635726407e-01 -1.038766687860e-01
1.548600000000e-01 8.443343766857e-01 -1.039934630788e-01 1.556656233143e-01 1.039934630788e-01 1.556656233143e-01 1.039934630788e-01 8.443343766857e-01 -1.039934630788e-01
1.549337500000e-01 8.443051571310e-01 -1.041102123988e-01 1.556948428690e-01 1.041102123988e-01 1.556948428690e-01 1.041102123988e-01 8.443051571310e-01 -1.041102123988e-01
1.550075000000e-01 8.442759139985e-01 -1.042269167902e-01 1.557240860015e-01 1.042269167902e-01 1.557240860015e-01 1.042269167902e-01 8.442759139985e-01 -1.042269167902e-01
1.550812500000e-01 8.442466473099e-01 -1.043435762972e-01 1.557533526901e-01 1.043435762972e-01 1.557533526901e-01 1.043435762972e-01 8.442466473099e-01 -1.043435762972e-01
1.551550000000e-01 8.442173570870e-01 -1.044601909639e-01 1.557826429130e-01 1.044601909639e-01 1.557826429130e-01 1.044601909639e-01 8.442173570870e-01 -1.044601909639e-01
1.552287500000e-01 8.441880433514e-01 -1.045767608343e-01 1.558119566486e-01 1.045767608343e-01 1.558119566486e-01 1.045767608343e-01 8.441880433514e-01 -1.045767608343e-01
1.553025000000e-01 8.441587061249e-01 -1.046932859522e-01 1.558412938751e-01 1.046932859522e-01 1.558412938751e-01 1.046932859522e-01 8.441587061249e-01 -1.046932859522e-01
1.553762500000e-01 8.441293454290e-01 -1.048097663616e-01 1.558706545710e-01 1.048097663616e-01 1.558706545710e-01 1.048097663616e-01 8.441293454290e-01 -1.048097663616e-01
1.554500000000e-01 8.440999612853e-01 -1.049262021062e-01 1.559000387147e-01 1.049262021062e-01 1.559000387147e-01 1.049262021062e-01 8.440999612853e-01 -1.049262021062e-01
1.555237500000e-01 8.440705537153e-01 -1.050425932297e-01 1.559294462847e-01 1.050425932297e-01 1.559294462847e-01 1.050425932297e-01 8.440705537153e-01 -1.050425932297e-01
1.555975000000e-01 8.440411227406e-01 -1.051589397755e-01 1.559588772594e-01 1.051589397755e-01 1.559588772594e-01 1.051589397755e-01 8.440411227406e-01 -1.051589397755e-01
1.556712500000e-01 8.440116683826e-01 -1.052752417873e-01 1.559883316174e-01 1.052752417873e-01 1.559883316174e-01 1.052752417873e-01 8.440116683826e-01 -1.052752417873e-01
1.557450000000e-01 8.439821906627e-01 -1.053914993085e-01 1.560178093373e-01 1.053914993085e-01 1.560178093373e-01 1.053914993085e-01 8.439821906627e-01 -1.053914993085e-01
1.558187500000e-01 8.439526896023e-01 -1.055077123823e-01 1.560473103977e-01 1.055077123823e-01 1.560473103977e-01 1.055077123823e-01 8.439526896023e-01 -1.055077123823e-01
1.558925000000e-01 8.439231652227e-01 -1.056238810520e-01 1.560768347773e-01 1.056238810520e-01 1.560768347773e-01 1.056238810520e-01 8.439231652227e-01 -1.056238810520e-01
1.559662500000e-01 8.438936175453e-01 -1.057400053609e-01 1.561063824547e-01 1.057400053609e-01 1.561063824547e-01 1.057400053609e-01 8.438936175453e-01 -1.057400053609e-01
1.560400000000e-01 8.438640465912e-01 -1.058560853519e-01 1.561359534088e-01 1.058560853519e-01 1.561359534088e-01 1.058560853519e-01 8.438640465912e-01 -1.058560853519e-01
1.561137500000e-01 8.438344523818e-01 -1.059721210680e-01 1.561655476182e-01 1.059721210680e-01 1.561655476182e-01 1.059721210680e-01 8.438344523818e-01 -1.059721210680e-01
1.561875000000e-01 8.438048349381e-01 -1.060881125523e-01 1.561951650619e-01 1.060881125523e-01 1.561951650619e-01 1.060881125523e-01 8.438048349381e-01 -1.060881125523e-01
1.562612500000e-01 8.437751942813e-01 -1.062040598474e-01 1.562248057187e-01 1.062040598474e-01 1.562248057187e-01 1.062040598474e-01 8.437751942813e-01 -1.062040598474e-01
1.563350000000e-01 8.437455304326e-01 -1.063199629963e-01 1.562544695674e-01 1.063199629963e-01 1.562544695674e-01 1.063199629963e-01 8.437455304326e-01 -1.063199629963e-01
1.564087500000e-01 8.437158434130e-01 -1.064358220415e-01 1.562841565870e-01 1.064358220415e-01 1.562841565870e-01 1.064358220415e-01 8.437158434130e-01 -1.064358220415e-01
1.564825000000e-01 8.436861332434e-01 -1.065516370256e-01 1.563138667566e-01 1.065516370256e-01 1.563138667566e-01 1.065516370256e-01 8.436861332434e-01 -1.065516370256e-01
1.565562500000e-01 8.436563999450e-01 -1.066674079912e-01 1.563436000550e-01 1.066674079912e-01 1.563436000550e-01 1.066674079912e-01 8.436563999450e-01 -1.066674079912e-01
1.566300000000e-01 8.436266435386e-01 -1.067831349806e-01 1.563733564614e-01 1.067831349806e-01 1.563733564614e-01 1.067831349806e-01 8.436266435386e-01 -1.067831349806e-01
1.567037500000e-01 8.435968640452e-01 -1.068988180363e-01 1.564031359548e-01 1.068988180363e-01 1.564031359548e-01 1.068988180363e-01 8.435968640452e-01 -1.068988180363e-01
1.567775000000e-01 8.435670614856e-01 -1.070144572004e-01 1.564329385144e-01 1.070144572004e-01 1.564329385144e-01 1.070144572004e-01 8.435670614856e-01 -1.070144572004e-01
1.568512500000e-01 8.435372358807e-01 -1.071300525152e-01 1.564627641193e-01 1.071300525152e-01 1.564627641193e-01 1.071300525152e-01 8.435372358807e-01 -1.071300525152e-01
1.569250000000e-01 8.435073872512e-01 -1.072456040228e-01 1.564926127488e-01 1.072456040228e-01 1.564926127488e-01 1.072456040228e-01 8.435073872512e-01 -1.072456040228e-01
1.569987500000e-01 8.434775156180e-01 -1.073611117652e-01 1.565224843820e-01 1.073611117652e-01 1.565224843820e-01 1.073611117652e-01 8.434775156180e-01 -1.073611117652e-01
1.570725000000e-01 8.434476210017e-01 -1.074765757844e-01 1.565523789983e-01 1.074765757844e-01 1.565523789983e-01 1.074765757844e-01 8.434476210017e-01 -1.074765757844e-01
1.571462500000e-01 8.434177034230e-01 -1.075919961221e-01 1.565822965770e-01 1.075919961221e-01 1.565822965770e-01 1.075919961221e-01 8.434177034230e-01 -1.075919961221e-01
1.572200000000e-01 8.433877629026e-01 -1.077073728202e-01 1.566122370974e-01 1.077073728202e-01 1.566122370974e-01 1.077073728202e-01 8.433877629026e-01 -1.077073728202e-01
1.572937500000e-01 8.433577994610e-01 -1.078227059205e-01 1.566422005390e-01 1.078227059205e-01 1.566422005390e-01 1.078227059205e-01 8.433577994610e-01 -1.078227059205e-01
1.573675000000e-01 8.433278131189e-01 -1.079379954644e-01 1.566721868811e-01 1.079379954644e-01 1.566721868811e-01 1.079379954644e-01 8.433278131189e-01 -1.079379954644e-01
1.574412500000e-01 8.432978038967e-01 -1.080532414936e-01 1.567021961033e-01 1.080532414936e-01 1.567021961033e-01 1.080532414936e-01 8.432978038967e-01 -1.080532414936e-01
1.575150000000e-01 8.432677718151e-01 -1.081684440496e-01 1.567322281849e-01 1.081684440496e-01 1.567322281849e-01 1.081684440496e-01 8.432677718151e-01 -1.081684440496e-01
1.575887500000e-01 8.432377168943e-01 -1.082836031737e-01 1.567622831057e-01 1.082836031737e-01 1.567622831057e-01 1.082836031737e-01 8.432377168943e-01 -1.082836031737e-01
1.576625000000e-01 8.432076391549e-01 -1.083987189072e-01 1.567923608451e-01 1.083987189072e-01 1.567923608451e-01 1.083987189072e-01 8.432076391549e-01 -1.083987189072e-01
1.577362500000e-01 8.431775386173e-01 -1.085137912913e-01 1.568224613827e-01 1.085137912913e-01 1.568224613827e-01 1.085137912913e-01 8.431775386173e-01 -1.085137912913e-01
1.578100000000e-01 8.431474153017e-01 -1.086288203673e-01 1.568525846983e-01 1.086288203673e-01 1.568525846983e-01 1.086288203673e-01 8.431474153017e-01 -1.086288203673e-01
1.578837500000e-01 8.431172692285e-01 -1.087438061762e-01 1.568827307715e-01 1.087438061762e-01 1.568827307715e-01 1.087438061762e-01 8.431172692285e-01 -1.087438061762e-01
1.579575000000e-01 8.430871004180e-01 -1.088587487590e-01 1.569128995820e-01 1.088587487590e-01 1.569128995820e-01 1.088587487590e-01 8.430871004180e-01 -1.088587487590e-01
1.580312500000e-01 8.430569088903e-01 -1.089736481566e-01 1.569430911097e-01 1.089736481566e-01 1.569430911097e-01 1.089736481566e-01 8.430569088903e-01 -1.089736481566e-01
1.581050000000e-01 8.430266946658e-01 -1.090885044099e-01 1.569733053342e-01 1.090885044099e-01 1.569733053342e-01 1.090885044099e-01 8.430266946658e-01 -1.090885044099e-01
1.581787500000e-01 8.429964577646e-01 -1.092033175595e-01 1.570035422354e-01 1.092033175595e-01 1.570035422354e-01 1.092033175595e-01 8.429964577646e-01 -1.092033175595e-01
1.582525000000e-01 8.429661982067e-01 -1.093180876463e-01 1.570338017933e-01 1.093180876463e-01 1.570338017933e-01 1.093180876463e-01 8.429661982067e-01 -1.093180876463e-01
1.583262500000e-01 8.429359160124e-01 -1.094328147108e-01 1.570640839876e-01 1.094328147108e-01 1.570640839876e-01 1.094328147108e-01 8.429359160124e-01 -1.094328147108e-01
1.584000000000e-01 8.429056112016e-01 -1.095474987936e-01 1.570943887984e-01 1.095474987936e-01 1.570943887984e-01 1.095474987936e-01 8.429056112016e-01 -1.095474987936e-01
1.584737500000e-01 8.428752837944e-01 -1.096621399350e-01 1.571247162056e-01 1.096621399350e-01 1.571247162056e-01 1.096621399350e-01 8.428752837944e-01 -1.096621399350e-01
1.585475000000e-01 8.428449338108e-01 -1.097767381755e-01 1.571550661892e-01 1.097767381755e-01 1.571550661892e-01 1.097767381755e-01 8.428449338108e-01 -1.097767381755e-01
1.586212500000e-01 8.428145612706e-01 -1.098912935555e-01 1.571854387294e-01 1.098912935555e-01 1.571854387294e-01 1.098912935555e-01 8.428145612706e-01 -1.098912935555e-01
1.586950000000e-01 8.427841661940e-01 -1.100058061150e-01 1.572158338060e-01 1.100058061150e-01 1.572158338060e-01 1.100058061150e-01 8.427841661940e-01 -1.100058061150e-01
1.587687500000e-01 8.427537486006e-01 -1.101202758943e-01 1.572462513994e-01 1.101202758943e-01 1.572462513994e-01 1.101202758943e-01 8.427537486006e-01 -1.101202758943e-01
1.588425000000e-01 8.427233085103e-01 -1.102347029335e-01 1.572766914897e-01 1.102347029335e-01 1.572766914897e-01 1.102347029335e-01 8.427233085103e-01 -1.102347029335e-01
1.589162500000e-01 8.426928459431e-01 -1.103490872725e-01 1.573071540569e-01 1.103490872725e-01 1.573071540569e-01 1.103490872725e-01 8.426928459431e-01 -1.103490872725e-01
1.589900000000e-01 8.426623609185e-01 -1.104634289512e-01 1.573376390815e-01 1.104634289512e-01 1.573376390815e-01 1.104634289512e-01 8.426623609185e-01 -1.104634289512e-01
1.590637500000e-01 8.426318534565e-01 -1.105777280096e-01 1.573681465435e-01 1.105777280096e-01 1.573681465435e-01 1.105777280096e-01 8.426318534565e-01 -1.105777280096e-01
1.591375000000e-01 8.426013235766e-01 -1.106919844874e-01 1.573986764234e-01 1.106919844874e-01 1.573986764234e-01 1.106919844874e-01 8.426013235766e-01 -1.106919844874e-01
1.592112500000e-01 8.425707712986e-01 -1.108061984243e-01 1.574292287014e-01 1.108061984243e-01 1.574292287014e-01 1.108061984243e-01 8.425707712986e-01 -1.108061984243e-01
1.592850000000e-01 8.425401966420e-01 -1.109203698599e-01 1.574598033580e-01 1.109203698599e-01 1.574598033580e-01 1.109203698599e-01 8.425401966420e-01 -1.109203698599e-01
1.593587500000e-01 8.425095996266e-01 -1.110344988338e-01 1.574904003734e-01 1.110344988338e-01 1.574904003734e-01 1.110344988338e-01 8.425095996266e-01 -1.110344988338e-01
1.594325000000e-01 8.424789802718e-01 -1.111485853854e-01 1.575210197282e-01 1.111485853854e-01 1.575210197282e-01 1.111485853854e-01 8.424789802718e-01 -1.111485853854e-01
1.595062500000e-01 8.424483385972e-01 -1.112626295542e-01 1.575516614028e-01 1.112626295542e-01 1.575516614028e-01 1.112626295542e-01 8.424483385972e-01 -1.112626295542e-01
1.595800000000e-01 8.424176746222e-01 -1.113766313794e-01 1.575823253778e-01 1.113766313794e-01 1.575823253778e-01 1.113766313794e-01 8.424176746222e-01 -1.113766313794e-01
1.596537500000e-01 8.423869883664e-01 -1.114905909003e-01 1.576130116336e-01 1.114905909003e-01 1.576130116336e-01 1.114905909003e-01 8.423869883664e-01 -1.114905909003e-01
1.597275000000e-01 8.423562798492e-01 -1.116045081562e-01 1.576437201508e-01 1.116045081562e-01 1.576437201508e-01 1.116045081562e-01 8.423562798492e-01 -1.116045081562e-01
1.598012500000e-01 8.423255490899e-01 -1.117183831861e-01 1.576744509101e-01 1.117183831861e-01 1.576744509101e-01 1.117183831861e-01 8.423255490899e-01 -1.117183831861e-01
1.598750000000e-01 8.422947961080e-01 -1.118322160290e-01 1.577052038920e-01 1.118322160290e-01 1.577052038920e-01 1.118322160290e-01 8.422947961080e-01 -1.118322160290e-01
1.599487500000e-01 8.422640209227e-01 -1.119460067239e-01 1.577359790773e-01 1.119460067239e-01 1.577359790773e-01 1.119460067239e-01 8.422640209227e-01 -1.119460067239e-01
1.600225000000e-01 8.422332235534e-01 -1.120597553097e-01 1.577667764466e-01 1.120597553097e-01 1.577667764466e-01 1.120597553097e-01 8.422332235534e-01 -1.120597553097e-01
1.600962500000e-01 8.422024040192e-01 -1.121734618252e-01 1.577975959808e-01 1.121734618252e-01 1.577975959808e-01 1.121734618252e-01 8.422024040192e-01 -1.121734618252e-01
1.601700000000e-01 8.421715623395e-01 -1.122871263091e-01 1.578284376605e-01 1.122871263091e-01 1.578284376605e-01 1.122871263091e-01 8.421715623395e-01 -1.122871263091e-01
1.602437500000e-01 8.421406985334e-01 -1.124007488002e-01 1.578593014666e-01 1.124007488002e-01 1.578593014666e-01 1.124007488002e-01 8.421406985334e-01 -1.124007488002e-01
1.603175000000e-01 8.421098126201e-01 -1.125143293369e-01 1.578901873799e-01 1.125143293369e-01 1.578901873799e-01 1.125143293369e-01 8.421098126201e-01 -1.125143293369e-01
1.603912500000e-01 8.420789046187e-01 -1.126278679579e-01 1.579210953813e-01 1.126278679579e-01 1.579210953813e-01 1.126278679579e-01 8.420789046187e-01 -1.126278679579e-01
1.604650000000e-01 8.420479745483e-01 -1.127413647016e-01 1.579520254517e-01 1.127413647016e-01 1.579520254517e-01 1.127413647016e-01 8.420479745483e-01 -1.127413647016e-01
1.605387500000e-01 8.420170224280e-01 -1.128548196063e-01 1.579829775720e-01 1.128548196063e-01 1.579829775720e-01 1.128548196063e-01 8.420170224280e-01 -1.128548196063e-01
1.606125000000e-01 8.419860482767e-01 -1.129682327103e-01 1.580139517233e-01 1.129682327103e-01 1.580139517233e-01 1.129682327103e-01 8.419860482767e-01 -1.129682327103e-01
1.606862500000e-01 8.419550521135e-01 -1.130816040520e-01 1.580449478865e-01 1.130816040520e-01 1.580449478865e-01 1.130816040520e-01 8.419550521135e-01 -1.130816040520e-01
1.607600000000e-01 8.419240339573e-01 -1.131949336694e-01 1.580759660427e-01 1.131949336694e-01 1.580759660427e-01 1.131949336694e-01 8.419240339573e-01 -1.131949336694e-01
1.608337500000e-01 8.418929938272e-01 -1.133082216007e-01 1.581070061728e-01 1.133082216007e-01 1.581070061728e-01 1.133082216007e-01 8.418929938272e-01 -1.133082216007e-01
1.609075000000e-01 8.418619317418e-01 -1.134214678839e-01 1.581380682582e-01 1.134214678839e-01 1.581380682582e-01 1.134214678839e-01 8.418619317418e-01 -1.134214678839e-01
1.609812500000e-01 8.418308477202e-01 -1.135346725568e-01 1.581691522798e-01 1.135346725568e-01 1.581691522798e-01 1.135346725568e-01 8.418308477202e-01 -1.135346725568e-01
1.610550000000e-01 8.417997417811e-01 -1.136478356575e-01 1.582002582189e-01 1.136478356575e-01 1.582002582189e-01 1.136478356575e-01 8.417997417811e-01 -1.136478356575e-01
1.611287500000e-01 8.417686139434e-01 -1.137609572237e-01 1.582313860566e-01 1.137609572237e-01 1.582313860566e-01 1.137609572237e-01 8.417686139434e-01 -1.137609572237e-01
1.612025000000e-01 8.417374642258e-01 -1.138740372931e-01 1.582625357742e-01 1.138740372931e-01 1.582625357742e-01 1.138740372931e-01 8.417374642258e-01 -1.138740372931e-01
1.612762500000e-01 8.417062926470e-01 -1.139870759034e-01 1.582937073530e-01 1.139870759034e-01 1.582937073530e-01 1.139870759034e-01 8.417062926470e-01 -1.139870759034e-01
1.613500000000e-01 8.416750992258e-01 -1.141000730923e-01 1.583249007742e-01 1.141000730923e-01 1.583249007742e-01 1.141000730923e-01 8.416750992258e-01 -1.141000730923e-01
1.614237500000e-01 8.416438839807e-01 -1.142130288972e-01 1.583561160193e-01 1.142130288972e-01 1.583561160193e-01 1.142130288972e-01 8.416438839807e-01 -1.142130288972e-01
1.614975000000e-01 8.416126469306e-01 -1.143259433556e-01 1.583873530694e-01 1.143259433556e-01 1.583873530694e-01 1.143259433556e-01 8.416126469306e-01 -1.143259433556e-01
1.615712500000e-01 8.415813880939e-01 -1.144388165049e-01 1.584186119061e-01 1.144388165049e-01 1.584186119061e-01 1.144388165049e-01 8.415813880939e-01 -1.144388165049e-01
1.616450000000e-01 8.415501074892e-01 -1.145516483824e-01 1.584498925108e-01 1.145516483824e-01 1.584498925108e-01 1.145516483824e-01 8.415501074892e-01 -1.145516483824e-01
1.617187500000e-01 8.415188051350e-01 -1.146644390253e-01 1.584811948650e-01 1.146644390253e-01 1.584811948650e-01 1.146644390253e-01 8.415188051350e-01 -1.146644390253e-01
1.617925000000e-01 8.414874810500e-01 -1.147771884709e-01 1.585125189500e-01 1.147771884709e-01 1.585125189500e-01 1.147771884709e-01 8.414874810500e-01 -1.147771884709e-01
1.618662500000e-01 8.414561352525e-01 -1.148898967562e-01 1.585438647475e-01 1.148898967562e-01 1.585438647475e-01 1.148898967562e-01 8.414561352525e-01 -1.148898967562e-01
1.619400000000e-01 8.414247677610e-01 -1.150025639182e-01 1.585752322390e-01 1.150025639182e-01 1.585752322390e-01 1.150025639182e-01 8.414247677610e-01 -1.150025639182e-01
1.620137500000e-01 8.413933785939e-01 -1.151151899941e-01 1.586066214061e-01 1.151151899941e-01 1.586066214061e-01 1.151151899941e-01 8.413933785939e-01 -1.151151899941e-01
1.620875000000e-01 8.413619677697e-01 -1.152277750206e-01 1.586380322303e-01 1.152277750206e-01 1.586380322303e-01 1.152277750206e-01 8.413619677697e-01 -1.152277750206e-01
1.621612500000e-01 8.413305353065e-01 -1.153403190346e-01 1.586694646935e-01 1.153403190346e-01 1.586694646935e-01 1.153403190346e-01 8.413305353065e-01 -1.153403190346e-01
1.622350000000e-01 8.412990812229e-01 -1.154528220728e-01 1.587009187771e-01 1.154528220728e-01 1.587009187771e-01 1.154528220728e-01 8.412990812229e-01 -1.154528220728e-01
1.623087500000e-01 8.412676055370e-01 -1.155652841720e-01 1.587323944630e-01 1.155652841720e-01 1.587323944630e-01 1.155652841720e-01 8.412676055370e-01 -1.155652841720e-01
1.623825000000e-01 8.412361082671e-01 -1.156777053688e-01 1.587638917329e-01 1.156777053688e-01 1.587638917329e-01 1.156777053688e-01 8.412361082671e-01 -1.156777053688e-01
1.624562500000e-01 8.412045894315e-01 -1.157900856998e-01 1.587954105685e-01 1.157900856998e-01 1.587954105685e-01 1.157900856998e-01 8.412045894315e-01 -1.157900856998e-01
1.625300000000e-01 8.411730490484e-01 -1.159024252014e-01 1.588269509516e-01 1.159024252014e-01 1.588269509516e-01 1.159024252014e-01 8.411730490484e-01 -1.159024252014e-01
1.626037500000e-01 8.411414871358e-01 -1.160147239100e-01 1.588585128642e-01 1.160147239100e-01 1.588585128642e-01 1.160147239100e-01 8.411414871358e-01 -1.160147239100e-01
1.626775000000e-01 8.411099037120e-01 -1.161269818621e-01 1.588900962880e-01 1.161269818621e-01 1.588900962880e-01 1.161269818621e-01 8.411099037120e-01 -1.161269818621e-01
1.627512500000e-01 8.410782987951e-01 -1.162391990940e-01 1.589217012049e-01 1.162391990940e-01 1.589217012049e-01 1.162391990940e-01 8.410782987951e-01 -1.162391990940e-01
1.628250000000e-01 8.410466724031e-01 -1.163513756417e-01 1.589533275969e-01 1.163513756417e-01 1.589533275969e-01 1.163513756417e-01 8.410466724031e-01 -1.163513756417e-01
1.628987500000e-01 8.410150245541e-01 -1.164635115416e-01 1.589849754459e-01 1.164635115416e-01 1.589849754459e-01 1.164635115416e-01 8.410150245541e-01 -1.164635115416e-01
1.629725000000e-01 8.409833552661e-01 -1.165756068297e-01 1.590166447339e-01 1.165756068297e-01 1.590166447339e-01 1.165756068297e-01 8.409833552661e-01 -1.165756068297e-01
1.630462500000e-01 8.409516645571e-01 -1.166876615420e-01 1.590483354429e-01 1.166876615420e-01 1.590483354429e-01 1.166876615420e-01 8.409516645571e-01 -1.166876615420e-01
1.631200000000e-01 8.409199524450e-01 -1.167996757145e-01 1.590800475550e-01 1.167996757145e-01 1.590800475550e-01 1.167996757145e-01 8.409199524450e-01 -1.167996757145e-01
1.631937500000e-01 8.408882189478e-01 -1.169116493831e-01 1.591117810522e-01 1.169116493831e-01 1.591117810522e-01 1.169116493831e-01 8.408882189478e-01 -1.169116493831e-01
1.632675000000e-01 8.408564640834e-01 -1.170235825835e-01 1.591435359166e-01 1.170235825835e-01 1.591435359166e-01 1.170235825835e-01 8.408564640834e-01 -1.170235825835e-01
1.633412500000e-01 8.408246878695e-01 -1.171354753517e-01 1.591753121305e-01 1.171354753517e-01 1.591753121305e-01 1.171354753517e-01 8.408246878695e-01 -1.171354753517e-01
1.634150000000e-01 8.407928903241e-01 -1.172473277231e-01 1.592071096759e-01 1.172473277231e-01 1.592071096759e-01 1.172473277231e-01 8.407928903241e-01 -1.172473277231e-01
1.634887500000e-01 8.407610714650e-01 -1.173591397336e-01 1.592389285350e-01 1.173591397336e-01 1.592389285350e-01 1.173591397336e-01 8.407610714650e-01 -1.173591397336e-01
1.635625000000e-01 8.407292313099e-01 -1.174709114186e-01 1.592707686901e-01 1.174709114186e-01 1.592707686901e-01 1.174709114186e-01 8.407292313099e-01 -1.174709114186e-01
1.636362500000e-01 8.406973698767e-01 -1.175826428136e-01 1.593026301233e-01 1.175826428136e-01 1.593026301233e-01 1.175826428136e-01 8.406973698767e-01 -1.175826428136e-01
1.637100000000e-01 8.406654871829e-01 -1.176943339541e-01 1.593345128171e-01 1.176943339541e-01 1.593345128171e-01 1.176943339541e-01 8.406654871829e-01 -1.176943339541e-01
1.637837500000e-01 8.406335832463e-01 -1.178059848755e-01 1.593664167537e-01 1.178059848755e-01 1.593664167537e-01 1.178059848755e-01 8.406335832463e-01 -1.178059848755e-01
1.638575000000e-01 8.406016580845e-01 -1.179175956130e-01 1.593983419155e-01 1.179175956130e-01 1.593983419155e-01 1.179175956130e-01 8.406016580845e-01 -1.179175956130e-01
1.639312500000e-01 8.405697117153e-01 -1.180291662018e-01 1.594302882847e-01 1.180291662018e-01 1.594302882847e-01 1.180291662018e-01 8.405697117153e-01 -1.180291662018e-01
1.640050000000e-01 8.405377441561e-01 -1.181406966772e-01 1.594622558439e-01 1.181406966772e-01 1.594622558439e-01 1.181406966772e-01 8.405377441561e-01 -1.181406966772e-01
1.640787500000e-01 8.405057554245e-01 -1.182521870742e-01 1.594942445755e-01 1.182521870742e-01 1.594942445755e-01 1.182521870742e-01 8.405057554245e-01 -1.182521870742e-01
1.641525000000e-01 8.404737455382e-01 -1.183636374280e-01 1.595262544618e-01 1.183636374280e-01 1.595262544618e-01 1.183636374280e-01 8.404737455382e-01 -1.183636374280e-01
1.642262500000e-01 8.404417145145e-01 -1.184750477734e-01 1.595582854855e-01 1.184750477734e-01 1.595582854855e-01 1.184750477734e-01 8.404417145145e-01 -1.184750477734e-01
1.643000000000e-01 8.404096623711e-01 -1.185864181453e-01 1.595903376289e-01 1.185864181453e-01 1.595903376289e-01 1.185864181453e-01 8.404096623711e-01 -1.185864181453e-01
1.643737500000e-01 8.403775891253e-01 -1.186977485787e-01 1.596224108747e-01 1.186977485787e-01 1.596224108747e-01 1.186977485787e-01 8.403775891253e-01 -1.186977485787e-01
1.644475000000e-01 8.403454947945e-01 -1.188090391084e-01 1.596545052055e-01 1.188090391084e-01 1.596545052055e-01 1.188090391084e-01 8.403454947945e-01 -1.188090391084e-01
1.645212500000e-01 8.403133793963e-01 -1.189202897689e-01 1.596866206037e-01 1.189202897689e-01 1.596866206037e-01 1.189202897689e-01 8.403133793963e-01 -1.189202897689e-01
1.645950000000e-01 8.402812429478e-01 -1.190315005951e-01 1.597187570522e-01 1.190315005951e-01 1.597187570522e-01 1.190315005951e-01 8.402812429478e-01 -1.190315005951e-01
1.646687500000e-01 8.402490854666e-01 -1.191426716214e-01 1.597509145334e-01 1.191426716214e-01 1.597509145334e-01 1.191426716214e-01 8.402490854666e-01 -1.191426716214e-01
1.647425000000e-01 8.402169069698e-01 -1.192538028824e-01 1.597830930302e-01 1.192538028824e-01 1.597830930302e-01 1.192538028824e-01 8.402169069698e-01 -1.192538028824e-01
1.648162500000e-01 8.401847074748e-01 -1.193648944127e-01 1.598152925252e-01 1.193648944127e-01 1.598152925252e-01 1.193648944127e-01 8.401847074748e-01 -1.193648944127e-01
1.648900000000e-01 8.401524869989e-01 -1.194759462465e-01 1.598475130011e-01 1.194759462465e-01 1.598475130011e-01 1.194759462465e-01 8.401524869989e-01 -1.194759462465e-01
1.649637500000e-01 8.401202455592e-01 -1.195869584183e-01 1.598797544408e-01 1.195869584183e-01 1.598797544408e-01 1.195869584183e-01 8.401202455592e-01 -1.195869584183e-01
1.650375000000e-01 8.400879831730e-01 -1.196979309622e-01 1.599120168270e-01 1.196979309622e-01 1.599120168270e-01 1.196979309622e-01 8.400879831730e-01 -1.196979309622e-01
1.651112500000e-01 8.400556998574e-01 -1.198088639126e-01 1.599443001426e-01 1.198088639126e-01 1.599443001426e-01 1.198088639126e-01 8.400556998574e-01 -1.198088639126e-01
1.651850000000e-01 8.400233956296e-01 -1.199197573036e-01 1.599766043704e-01 1.199197573036e-01 1.599766043704e-01 1.199197573036e-01 8.400233956296e-01 -1.199197573036e-01
1.652587500000e-01 8.399910705067e-01 -1.200306111692e-01 1.600089294933e-01 1.200306111692e-01 1.600089294933e-01 1.200306111692e-01 8.399910705067e-01 -1.200306111692e-01
1.653325000000e-01 8.399587245057e-01 -1.201414255435e-01 1.600412754943e-01 1.201414255435e-01 1.600412754943e-01 1.201414255435e-01 8.399587245057e-01 -1.201414255435e-01
1.654062500000e-01 8.399263576438e-01 -1.202522004605e-01 1.600736423562e-01 1.202522004605e-01 1.600736423562e-01 1.202522004605e-01 8.399263576438e-01 -1.202522004605e-01
1.654800000000e-01 8.398939699380e-01 -1.203629359540e-01 1.601060300620e-01 1.203629359540e-01 1.601060300620e-01 1.203629359540e-01 8.398939699380e-01 -1.203629359540e-01
1.655537500000e-01 8.398615614053e-01 -1.204736320580e-01 1.601384385947e-01 1.204736320580e-01 1.601384385947e-01 1.204736320580e-01 8.398615614053e-01 -1.204736320580e-01
1.656275000000e-01 8.398291320626e-01 -1.205842888061e-01 1.601708679374e-01 1.205842888061e-01 1.601708679374e-01 1.205842888061e-01 8.398291320626e-01 -1.205842888061e-01
1.657012500000e-01 8.397966819270e-01 -1.206949062322e-01 1.602033180730e-01 1.206949062322e-01 1.602033180730e-01 1.206949062322e-01 8.397966819270e-01 -1.206949062322e-01
1.657750000000e-01 8.397642110153e-01 -1.208054843698e-01 1.602357889847e-01 1.208054843698e-01 1.602357889847e-01 1.208054843698e-01 8.397642110153e-01 -1.208054843698e-01
1.658487500000e-01 8.397317193444e-01 -1.209160232526e-01 1.602682806556e-01 1.209160232526e-01 1.602682806556e-01 1.209160232526e-01 8.397317193444e-01 -1.209160232526e-01
1.659225000000e-01 8.396992069313e-01 -1.210265229141e-01 1.603007930687e-01 1.210265229141e-01 1.603007930687e-01 1.210265229141e-01 8.396992069313e-01 -1.210265229141e-01
1.659962500000e-01 8.396666737926e-01 -1.211369833877e-01 1.603333262074e-01 1.211369833877e-01 1.603333262074e-01 1.211369833877e-01 8.396666737926e-01 -1.211369833877e-01
1.660700000000e-01 8.396341199454e-01 -1.212474047070e-01 1.603658800546e-01 1.212474047070e-01 1.603658800546e-01 1.212474047070e-01 8.396341199454e-01 -1.212474047070e-01
1.661437500000e-01 8.396015454062e-01 -1.213577869051e-01 1.603984545938e-01 1.213577869051e-01 1.603984545938e-01 1.213577869051e-01 8.396015454062e-01 -1.213577869051e-01
1.662175000000e-01 8.395689501920e-01 -1.214681300155e-01 1.604310498080e-01 1.214681300155e-01 1.604310498080e-01 1.214681300155e-01 8.395689501920e-01 -1.214681300155e-01
1.662912500000e-01 8.395363343195e-01 -1.215784340714e-01 1.604636656805e-01 1.215784340714e-01 1.604636656805e-01 1.215784340714e-01 8.395363343195e-01 -1.215784340714e-01
1.663650000000e-01 8.395036978053e-01 -1.216886991059e-01 1.604963021947e-01 1.216886991059e-01 1.604963021947e-01 1.216886991059e-01 8.395036978053e-01 -1.216886991059e-01
1.664387500000e-01 8.394710406661e-01 -1.217989251521e-01 1.605289593339e-01 1.217989251521e-01 1.605289593339e-01 1.217989251521e-01 8.394710406661e-01 -1.217989251521e-01
1.665125000000e-01 8.394383629186e-01 -1.219091122431e-01 1.605616370814e-01 1.219091122431e-01 1.605616370814e-01 1.219091122431e-01 8.394383629186e-01 -1.219091122431e-01
1.665862500000e-01 8.394056645794e-01 -1.220192604119e-01 1.605943354206e-01 1.220192604119e-01 1.605943354206e-01 1.220192604119e-01 8.394056645794e-01 -1.220192604119e-01
1.666600000000e-01 8.393729456652e-01 -1.221293696914e-01 1.606270543348e-01 1.221293696914e-01 1.606270543348e-01 1.221293696914e-01 8.393729456652e-01 -1.221293696914e-01
1.667337500000e-01 8.393402061924e-01 -1.222394401145e-01 1.606597938076e-01 1.222394401145e-01 1.606597938076e-01 1.222394401145e-01 8.393402061924e-01 -1.222394401145e-01
1.668075000000e-01 8.393074461777e-01 -1.223494717139e-01 1.606925538223e-01 1.223494717139e-01 1.606925538223e-01 1.223494717139e-01 8.393074461777e-01 -1.223494717139e-01
1.668812500000e-01 8.392746656376e-01 -1.224594645225e-01 1.607253343624e-01 1.224594645225e-01 1.607253343624e-01 1.224594645225e-01 8.392746656376e-01 -1.224594645225e-01
1.669550000000e-01 8.392418645885e-01 -1.225694185730e-01 1.607581354115e-01 1.225694185730e-01 1.607581354115e-01 1.225694185730e-01 8.392418645885e-01 -1.225694185730e-01
1.670287500000e-01 8.392090430469e-01 -1.226793338979e-01 1.607909569531e-01 1.226793338979e-01 1.607909569531e-01 1.226793338979e-01 8.392090430469e-01 -1.226793338979e-01
1.671025000000e-01 8.391762010293e-01 -1.227892105299e-01 1.608237989707e-01 1.227892105299e-01 1.608237989707e-01 1.227892105299e-01 8.391762010293e-01 -1.227892105299e-01
1.671762500000e-01 8.391433385521e-01 -1.228990485014e-01 1.608566614479e-01 1.228990485014e-01 1.608566614479e-01 1.228990485014e-01 8.391433385521e-01 -1.228990485014e-01
1.672500000000e-01 8.391104556317e-01 -1.230088478449e-01 1.608895443683e-01 1.230088478449e-01 1.608895443683e-01 1.230088478449e-01 8.391104556317e-01 -1.230088478449e-01
1.673237500000e-01 8.390775522845e-01 -1.231186085928e-01 1.609224477155e-01 1.231186085928e-01 1.609224477155e-01 1.231186085928e-01 8.390775522845e-01 -1.231186085928e-01
1.673975000000e-01 8.390446285267e-01 -1.232283307775e-01 1.609553714733e-01 1.232283307775e-01 1.609553714733e-01 1.232283307775e-01 8.390446285267e-01 -1.232283307775e-01
1.674712500000e-01 8.390116843748e-01 -1.233380144312e-01 1.609883156252e-01 1.233380144312e-01 1.609883156252e-01 1.233380144312e-01 8.390116843748e-01 -1.233380144312e-01
1.675450000000e-01 8.389787198449e-01 -1.234476595862e-01 1.610212801551e-01 1.234476595862e-01 1.610212801551e-01 1.234476595862e-01 8.389787198449e-01 -1.234476595862e-01
1.676187500000e-01 8.389457349534e-01 -1.235572662746e-01 1.610542650466e-01 1.235572662746e-01 1.610542650466e-01 1.235572662746e-01 8.389457349534e-01 -1.235572662746e-01
1.676925000000e-01 8.389127297165e-01 -1.236668345285e-01 1.610872702835e-01 1.236668345285e-01 1.610872702835e-01 1.236668345285e-01 8.389127297165e-01 -1.236668345285e-01
1.677662500000e-01 8.388797041505e-01 -1.237763643799e-01 1.611202958495e-01 1.237763643799e-01 1.611202958495e-01 1.237763643799e-01 8.388797041505e-01 -1.237763643799e-01
1.678400000000e-01 8.388466582714e-01 -1.238858558609e-01 1.611533417286e-01 1.238858558609e-01 1.611533417286e-01 1.238858558609e-01 8.388466582714e-01 -1.238858558609e-01
1.679137500000e-01 8.388135920955e-01 -1.239953090034e-01 1.611864079045e-01 1.239953090034e-01 1.611864079045e-01 1.239953090034e-01 8.388135920955e-01 -1.239953090034e-01
1.679875000000e-01 8.387805056389e-01 -1.241047238393e-01 1.612194943611e-01 1.241047238393e-01 1.612194943611e-01 1.241047238393e-01 8.387805056389e-01 -1.241047238393e-01
1.680612500000e-01 8.387473989177e-01 -1.242141004004e-01 1.612526010823e-01 1.242141004004e-01 1.612526010823e-01 1.242141004004e-01 8.387473989177e-01 -1.242141004004e-01
1.681350000000e-01 8.387142719480e-01 -1.243234387184e-01 1.612857280520e-01 1.243234387184e-01 1.612857280520e-01 1.243234387184e-01 8.387142719480e-01 -1.243234387184e-01
1.682087500000e-01 8.386811247458e-01 -1.244327388250e-01 1.613188752542e-01 1.244327388250e-01 1.613188752542e-01 1.244327388250e-01 8.386811247458e-01 -1.244327388250e-01
1.682825000000e-01 8.386479573273e-01 -1.245420007519e-01 1.613520426727e-01 1.245420007519e-01 1.613520426727e-01 1.245420007519e-01 8.386479573273e-01 -1.245420007519e-01
1.683562500000e-01 8.386147697084e-01 -1.246512245307e-01 1.613852302916e-01 1.246512245307e-01 1.613852302916e-01 1.246512245307e-01 8.386147697084e-01 -1.246512245307e-01
1.684300000000e-01 8.385815619050e-01 -1.247604101930e-01 1.614184380950e-01 1.247604101930e-01 1.614184380950e-01 1.247604101930e-01 8.385815619050e-01 -1.247604101930e-01
1.685037500000e-01 8.385483339333e-01 -1.248695577701e-01 1.614516660667e-01 1.248695577701e-01 1.614516660667e-01 1.248695577701e-01 8.385483339333e-01 -1.248695577701e-01
1.685775000000e-01 8.385150858090e-01 -1.249786672935e-01 1.614849141910e-01 1.249786672935e-01 1.614849141910e-01 1.249786672935e-01 8.385150858090e-01 -1.249786672935e-01
1.686512500000e-01 8.384818175481e-01 -1.250877387945e-01 1.615181824519e-01 1.250877387945e-01 1.615181824519e-01 1.250877387945e-01 8.384818175481e-01 -1.250877387945e-01
1.687250000000e-01 8.384485291666e-01 -1.251967723046e-01 1.615514708334e-01 1.251967723046e-01 1.615514708334e-01 1.251967723046e-01 8.384485291666e-01 -1.251967723046e-01
1.687987500000e-01 8.384152206802e-01 -1.253057678548e-01 1.615847793198e-01 1.253057678548e-01 1.615847793198e-01 1.253057678548e-01 8.384152206802e-01 -1.253057678548e-01
1.688725000000e-01 8.383818921048e-01 -1.254147254765e-01 1.616181078952e-01 1.254147254765e-01 1.616181078952e-01 1.254147254765e-01 8.383818921048e-01 -1.254147254765e-01
1.689462500000e-01 8.383485434562e-01 -1.255236452007e-01 1.616514565438e-01 1.255236452007e-01 1.616514565438e-01 1.255236452007e-01 8.383485434562e-01 -1.255236452007e-01
1.690200000000e-01 8.383151747502e-01 -1.256325270586e-01 1.616848252498e-01 1.256325270586e-01 1.616848252498e-01 1.256325270586e-01 8.383151747502e-01 -1.256325270586e-01
1.690937500000e-01 8.382817860026e-01 -1.257413710811e-01 1.617182139974e-01 1.257413710811e-01 1.617182139974e-01 1.257413710811e-01 8.382817860026e-01 -1.257413710811e-01
1.691675000000e-01 8.382483772291e-01 -1.258501772993e-01 1.617516227709e-01 1.258501772993e-01 1.617516227709e-01 1.258501772993e-01 8.382483772291e-01 -1.258501772993e-01
1.692412500000e-01 8.382149484455e-01 -1.259589457440e-01 1.617850515545e-01 1.259589457440e-01 1.617850515545e-01 1.259589457440e-01 8.382149484455e-01 -1.259589457440e-01
1.693150000000e-01 8.381814996674e-01 -1.260676764461e-01 1.618185003326e-01 1.260676764461e-01 1.618185003326e-01 1.260676764461e-01 8.381814996674e-01 -1.260676764461e-01
1.693887500000e-01 8.381480309105e-01 -1.261763694364e-01 1.618519690895e-01 1.261763694364e-01 1.618519690895e-01 1.261763694364e-01 8.381480309105e-01 -1.261763694364e-01
1.694625000000e-01 8.381145421904e-01 -1.262850247456e-01 1.618854578096e-01 1.262850247456e-01 1.618854578096e-01 1.262850247456e-01 8.381145421904e-01 -1.262850247456e-01
1.695362500000e-01 8.380810335228e-01 -1.263936424045e-01 1.619189664772e-01 1.263936424045e-01 1.619189664772e-01 1.263936424045e-01 8.380810335228e-01 -1.263936424045e-01
1.696100000000e-01 8.380475049233e-01 -1.265022224437e-01 1.619524950767e-01 1.265022224437e-01 1.619524950767e-01 1.265022224437e-01 8.380475049233e-01 -1.265022224437e-01
1.696837500000e-01 8.380139564075e-01 -1.266107648938e-01 1.619860435925e-01 1.266107648938e-01 1.619860435925e-01 1.266107648938e-01 8.380139564075e-01 -1.266107648938e-01
1.697575000000e-01 8.379803879908e-01 -1.267192697853e-01 1.620196120092e-01 1.267192697853e-01 1.620196120092e-01 1.267192697853e-01 8.379803879908e-01 -1.267192697853e-01
1.698312500000e-01 8.379467996888e-01 -1.268277371487e-01 1.620532003112e-01 1.268277371487e-01 1.620532003112e-01 1.268277371487e-01 8.379467996888e-01 -1.268277371487e-01
1.699050000000e-01 8.379131915171e-01 -1.269361670144e-01 1.620868084829e-01 1.269361670144e-01 1.620868084829e-01 1.269361670144e-01 8.379131915171e-01 -1.269361670144e-01
1.699787500000e-01 8.378795634911e-01 -1.270445594127e-01 1.621204365089e-01 1.270445594127e-01 1.621204365089e-01 1.270445594127e-01 8.378795634911e-01 -1.270445594127e-01
1.700525000000e-01 8.378459156262e-01 -1.271529143740e-01 1.621540843738e-01 1.271529143740e-01 1.621540843738e-01 1.271529143740e-01 8.378459156262e-01 -1.271529143740e-01
1.701262500000e-01 8.378122479379e-01 -1.272612319286e-01 1.621877520621e-01 1.272612319286e-01 1.621877520621e-01 1.272612319286e-01 8.378122479379e-01 -1.272612319286e-01
1.702000000000e-01 8.377785604417e-01 -1.273695121066e-01 1.622214395583e-01 1.273695121066e-01 1.622214395583e-01 1.273695121066e-01 8.377785604417e-01 -1.273695121066e-01
1.702737500000e-01 8.377448531528e-01 -1.274777549381e-01 1.622551468472e-01 1.274777549381e-01 1.622551468472e-01 1.274777549381e-01 8.377448531528e-01 -1.274777549381e-01
1.703475000000e-01 8.377111260868e-01 -1.275859604534e-01 1.622888739132e-01 1.275859604534e-01 1.622888739132e-01 1.275859604534e-01 8.377111260868e-01 -1.275859604534e-01
1.704212500000e-01 8.376773792588e-01 -1.276941286824e-01 1.623226207412e-01 1.276941286824e-01 1.623226207412e-01 1.276941286824e-01 8.376773792588e-01 -1.276941286824e-01
1.704950000000e-01 8.376436126842e-01 -1.278022596552e-01 1.623563873158e-01 1.278022596552e-01 1.623563873158e-01 1.278022596552e-01 8.376436126842e-01 -1.278022596552e-01
1.705687500000e-01 8.376098263783e-01 -1.279103534016e-01 1.623901736217e-01 1.279103534016e-01 1.623901736217e-01 1.279103534016e-01 8.376098263783e-01 -1.279103534016e-01
1.706425000000e-01 8.375760203565e-01 -1.280184099515e-01 1.624239796435e-01 1.280184099515e-01 1.624239796435e-01 1.280184099515e-01 8.375760203565e-01 -1.280184099515e-01
1.707162500000e-01 8.375421946338e-01 -1.281264293348e-01 1.624578053662e-01 1.281264293348e-01 1.624578053662e-01 1.281264293348e-01 8.375421946338e-01 -1.281264293348e-01
1.707900000000e-01 8.375083492257e-01 -1.282344115813e-01 1.624916507743e-01 1.282344115813e-01 1.624916507743e-01 1.282344115813e-01 8.375083492257e-01 -1.282344115813e-01
1.708637500000e-01 8.374744841471e-01 -1.283423567206e-01 1.625255158529e-01 1.283423567206e-01 1.625255158529e-01 1.283423567206e-01 8.374744841471e-01 -1.283423567206e-01
1.709375000000e-01 8.374405994135e-01 -1.284502647825e-01 1.625594005865e-01 1.284502647825e-01 1.625594005865e-01 1.284502647825e-01 8.374405994135e-01 -1.284502647825e-01
1.710112500000e-01 8.374066950398e-01 -1.285581357965e-01 1.625933049602e-01 1.285581357965e-01 1.625933049602e-01 1.285581357965e-01 8.374066950398e-01 -1.285581357965e-01
1.710850000000e-01 8.373727710413e-01 -1.286659697923e-01 1.626272289587e-01 1.286659697923e-01 1.626272289587e-01 1.286659697923e-01 8.373727710413e-01 -1.286659697923e-01
1.711587500000e-01 8.373388274330e-01 -1.287737667993e-01 1.626611725670e-01 1.287737667993e-01 1.626611725670e-01 1.287737667993e-01 8.373388274330e-01 -1.287737667993e-01
1.712325000000e-01 8.373048642301e-01 -1.288815268470e-01 1.626951357699e-01 1.288815268470e-01 1.626951357699e-01 1.288815268470e-01 8.373048642301e-01 -1.288815268470e-01
1.713062500000e-01 8.372708814476e-01 -1.289892499648e-01 1.627291185524e-01 1.289892499648e-01 1.627291185524e-01 1.289892499648e-01 8.372708814476e-01 -1.289892499648e-01
1.713800000000e-01 8.372368791005e-01 -1.290969361821e-01 1.627631208995e-01 1.290969361821e-01 1.627631208995e-01 1.290969361821e-01 8.372368791005e-01 -1.290969361821e-01
1.714537500000e-01 8.372028572039e-01 -1.292045855282e-01 1.627971427961e-01 1.292045855282e-01 1.627971427961e-01 1.292045855282e-01 8.372028572039e-01 -1.292045855282e-01
1.715275000000e-01 8.371688157728e-01 -1.293121980323e-01 1.628311842272e-01 1.293121980323e-01 1.628311842272e-01 1.293121980323e-01 8.371688157728e-01 -1.293121980323e-01
1.716012500000e-01 8.371347548222e-01 -1.294197737236e-01 1.628652451778e-01 1.294197737236e-01 1.628652451778e-01 1.294197737236e-01 8.371347548222e-01 -1.294197737236e-01
1.716750000000e-01 8.371006743670e-01 -1.295273126313e-01 1.628993256330e-01 1.295273126313e-01 1.628993256330e-01 1.295273126313e-01 8.371006743670e-01 -1.295273126313e-01
1.717487500000e-01 8.370665744221e-01 -1.296348147845e-01 1.629334255779e-01 1.296348147845e-01 1.629334255779e-01 1.296348147845e-01 8.370665744221e-01 -1.296348147845e-01
1.718225000000e-01 8.370324550025e-01 -1.297422802122e-01 1.629675449975e-01 1.297422802122e-01 1.629675449975e-01 1.297422802122e-01 8.370324550025e-01 -1.297422802122e-01
1.718962500000e-01 8.369983161230e-01 -1.298497089434e-01 1.630016838770e-01 1.298497089434e-01 1.630016838770e-01 1.298497089434e-01 8.369983161230e-01 -1.298497089434e-01
1.719700000000e-01 8.369641577986e-01 -1.299571010071e-01 1.630358422014e-01 1.299571010071e-01 1.630358422014e-01 1.299571010071e-01 8.369641577986e-01 -1.299571010071e-01
1.720437500000e-01 8.369299800440e-01 -1.300644564321e-01 1.630700199560e-01 1.300644564321e-01 1.630700199560e-01 1.300644564321e-01 8.369299800440e-01 -1.300644564321e-01
1.721175000000e-01 8.368957828741e-01 -1.301717752473e-01 1.631042171259e-01 1.301717752473e-01 1.631042171259e-01 1.301717752473e-01 8.368957828741e-01 -1.301717752473e-01
1.721912500000e-01 8.368615663037e-01 -1.302790574815e-01 1.631384336963e-01 1.302790574815e-01 1.631384336963e-01 1.302790574815e-01 8.368615663037e-01 -1.302790574815e-01
1.722650000000e-01 8.368273303477e-01 -1.303863031635e-01 1.631726696523e-01 1.303863031635e-01 1.631726696523e-01 1.303863031635e-01 8.368273303477e-01 -1.303863031635e-01
1.723387500000e-01 8.367930750206e-01 -1.304935123218e-01 1.632069249794e-01 1.304935123218e-01 1.632069249794e-01 1.304935123218e-01 8.367930750206e-01 -1.304935123218e-01
1.724125000000e-01 8.367588003373e-01 -1.306006849852e-01 1.632411996627e-01 1.306006849852e-01 1.632411996627e-01 1.306006849852e-01 8.367588003373e-01 -1.306006849852e-01
1.724862500000e-01 8.367245063125e-01 -1.307078211823e-01 1.632754936875e-01 1.307078211823e-01 1.632754936875e-01 1.307078211823e-01 8.367245063125e-01 -1.307078211823e-01
1.725600000000e-01 8.366901929610e-01 -1.308149209415e-01 1.633098070390e-01 1.308149209415e-01 1.633098070390e-01 1.308149209415e-01 8.366901929610e-01 -1.308149209415e-01
1.726337500000e-01 8.366558602972e-01 -1.309219842914e-01 1.633441397028e-01 1.309219842914e-01 1.633441397028e-01 1.309219842914e-01 8.366558602972e-01 -1.309219842914e-01
1.727075000000e-01 8.366215083360e-01 -1.310290112603e-01 1.633784916640e-01 1.310290112603e-01 1.633784916640e-01 1.310290112603e-01 8.366215083360e-01 -1.310290112603e-01
1.727812500000e-01 8.365871370920e-01 -1.311360018768e-01 1.634128629080e-01 1.311360018768e-01 1.634128629080e-01 1.311360018768e-01 8.365871370920e-01 -1.311360018768e-01
1.728550000000e-01 8.365527465797e-01 -1.312429561691e-01 1.634472534203e-01 1.312429561691e-01 1.634472534203e-01 1.312429561691e-01 8.365527465797e-01 -1.312429561691e-01
1.729287500000e-01 8.365183368137e-01 -1.313498741655e-01 1.634816631863e-01 1.313498741655e-01 1.634816631863e-01 1.313498741655e-01 8.365183368137e-01 -1.313498741655e-01
1.730025000000e-01 8.364839078087e-01 -1.314567558943e-01 1.635160921913e-01 1.314567558943e-01 1.635160921913e-01 1.314567558943e-01 8.364839078087e-01 -1.314567558943e-01
1.730762500000e-01 8.364494595791e-01 -1.315636013836e-01 1.635505404209e-01 1.315636013836e-01 1.635505404209e-01 1.315636013836e-01 8.364494595791e-01 -1.315636013836e-01
1.731500000000e-01 8.364149921396e-01 -1.316704106616e-01 1.635850078604e-01 1.316704106616e-01 1.635850078604e-01 1.316704106616e-01 8.364149921396e-01 -1.316704106616e-01
1.732237500000e-01 8.363805055045e-01 -1.317771837564e-01 1.636194944955e-01 1.317771837564e-01 1.636194944955e-01 1.317771837564e-01 8.363805055045e-01 -1.317771837564e-01
1.732975000000e-01 8.363459996884e-01 -1.318839206960e-01 1.636540003116e-01 1.318839206960e-01 1.636540003116e-01 1.318839206960e-01 8.363459996884e-01 -1.318839206960e-01
1.733712500000e-01 8.363114747057e-01 -1.319906215083e-01 1.636885252943e-01 1.319906215083e-01 1.636885252943e-01 1.319906215083e-01 8.363114747057e-01 -1.319906215083e-01
1.734450000000e-01 8.362769305710e-01 -1.320972862214e-01 1.637230694290e-01 1.320972862214e-01 1.637230694290e-01 1.320972862214e-01 8.362769305710e-01 -1.320972862214e-01
1.735187500000e-01 8.362423672985e-01 -1.322039148632e-01 1.637576327015e-01 1.322039148632e-01 1.637576327015e-01 1.322039148632e-01 8.362423672985e-01 -1.322039148632e-01
1.735925000000e-01 8.362077849027e-01 -1.323105074614e-01 1.637922150973e-01 1.323105074614e-01 1.637922150973e-01 1.323105074614e-01 8.362077849027e-01 -1.323105074614e-01
1.736662500000e-01 8.361731833981e-01 -1.324170640439e-01 1.638268166019e-01 1.324170640439e-01 1.638268166019e-01 1.324170640439e-01 8.361731833981e-01 -1.324170640439e-01
1.737400000000e-01 8.361385627988e-01 -1.325235846384e-01 1.638614372012e-01 1.325235846384e-01 1.638614372012e-01 1.325235846384e-01 8.361385627988e-01 -1.325235846384e-01
1.738137500000e-01 8.361039231194e-01 -1.326300692727e-01 1.638960768806e-01 1.326300692727e-01 1.638960768806e-01 1.326300692727e-01 8.361039231194e-01 -1.326300692727e-01
1.738875000000e-01 8.360692643741e-01 -1.327365179743e-01 1.639307356259e-01 1.327365179743e-01 1.639307356259e-01 1.327365179743e-01 8.360692643741e-01 -1.327365179743e-01
1.739612500000e-01 8.360345865771e-01 -1.328429307708e-01 1.639654134229e-01 1.328429307708e-01 1.639654134229e-01 1.328429307708e-01 8.360345865771e-01 -1.328429307708e-01
1.740350000000e-01 8.359998897429e-01 -1.329493076899e-01 1.640001102571e-01 1.329493076899e-01 1.640001102571e-01 1.329493076899e-01 8.359998897429e-01 -1.329493076899e-01
1.741087500000e-01 8.359651738856e-01 -1.330556487590e-01 1.640348261144e-01 1.330556487590e-01 1.640348261144e-01 1.330556487590e-01 8.359651738856e-01 -1.330556487590e-01
1.741825000000e-01 8.359304390194e-01 -1.331619540056e-01 1.640695609806e-01 1.331619540056e-01 1.640695609806e-01 1.331619540056e-01 8.359304390194e-01 -1.331619540056e-01
1.742562500000e-01 8.358956851587e-01 -1.332682234571e-01 1.641043148413e-01 1.332682234571e-01 1.641043148413e-01 1.332682234571e-01 8.358956851587e-01 -1.332682234571e-01
1.743300000000e-01 8.358609123175e-01 -1.333744571408e-01 1.641390876825e-01 1.333744571408e-01 1.641390876825e-01 1.333744571408e-01 8.358609123175e-01 -1.333744571408e-01
1.744037500000e-01 8.358261205101e-01 -1.334806550841e-01 1.641738794899e-01 1.334806550841e-01 1.641738794899e-01 1.334806550841e-01 8.358261205101e-01 -1.334806550841e-01
1.744775000000e-01 8.357913097507e-01 -1.335868173142e-01 1.642086902493e-01 1.335868173142e-01 1.642086902493e-01 1.335868173142e-01 8.357913097507e-01 -1.335868173142e-01
1.745512500000e-01 8.357564800532e-01 -1.336929438583e-01 1.642435199468e-01 1.336929438583e-01 1.642435199468e-01 1.336929438583e-01 8.357564800532e-01 -1.336929438583e-01
1.746250000000e-01 8.357216314320e-01 -1.337990347437e-01 1.642783685680e-01 1.337990347437e-01 1.642783685680e-01 1.337990347437e-01 8.357216314320e-01 -1.337990347437e-01
1.746987500000e-01 8.356867639010e-01 -1.339050899974e-01 1.643132360990e-01 1.339050899974e-01 1.643132360990e-01 1.339050899974e-01 8.356867639010e-01 -1.339050899974e-01
1.747725000000e-01 8.356518774744e-01 -1.340111096465e-01 1.643481225256e-01 1.340111096465e-01 1.643481225256e-01 1.340111096465e-01 8.356518774744e-01 -1.340111096465e-01
1.748462500000e-01 8.356169721662e-01 -1.341170937180e-01 1.643830278338e-01 1.341170937180e-01 1.643830278338e-01 1.341170937180e-01 8.356169721662e-01 -1.341170937180e-01
1.749200000000e-01 8.355820479905e-01 -1.342230422390e-01 1.644179520095e-01 1.342230422390e-01 1.644179520095e-01 1.342230422390e-01 8.355820479905e-01 -1.342230422390e-01
1.749937500000e-01 8.355471049612e-01 -1.343289552363e-01 1.644528950388e-01 1.343289552363e-01 1.644528950388e-01 1.343289552363e-01 8.355471049612e-01 -1.343289552363e-01
1.750675000000e-01 8.355121430923e-01 -1.344348327369e-01 1.644878569077e-01 1.344348327369e-01 1.644878569077e-01 1.344348327369e-01 8.355121430923e-01 -1.344348327369e-01
1.751412500000e-01 8.354771623979e-01 -1.345406747675e-01 1.645228376021e-01 1.345406747675e-01 1.645228376021e-01 1.345406747675e-01 8.354771623979e-01 -1.345406747675e-01
1.752150000000e-01 8.354421628919e-01 -1.346464813551e-01 1.645578371081e-01 1.346464813551e-01 1.645578371081e-01 1.346464813551e-01 8.354421628919e-01 -1.346464813551e-01
1.752887500000e-01 8.354071445882e-01 -1.347522525262e-01 1.645928554118e-01 1.347522525262e-01 1.645928554118e-01 1.347522525262e-01 8.354071445882e-01 -1.347522525262e-01
1.753625000000e-01 8.353721075008e-01 -1.348579883077e-01 1.646278924992e-01 1.348579883077e-01 1.646278924992e-01 1.348579883077e-01 8.353721075008e-01 -1.348579883077e-01
1.754362500000e-01 8.353370516435e-01 -1.349636887261e-01 1.646629483565e-01 1.349636887261e-01 1.646629483565e-01 1.349636887261e-01 8.353370516435e-01 -1.349636887261e-01
1.755100000000e-01 8.353019770302e-01 -1.350693538081e-01 1.646980229698e-01 1.350693538081e-01 1.646980229698e-01 1.350693538081e-01 8.353019770302e-01 -1.350693538081e-01
1.755837500000e-01 8.352668836749e-01 -1.351749835803e-01 1.647331163251e-01 1.351749835803e-01 1.647331163251e-01 1.351749835803e-01 8.352668836749e-01 -1.351749835803e-01
1.756575000000e-01 8.352317715913e-01 -1.352805780692e-01 1.647682284087e-01 1.352805780692e-01 1.647682284087e-01 1.352805780692e-01 8.352317715913e-01 -1.352805780692e-01
1.757312500000e-01 8.351966407932e-01 -1.353861373011e-01 1.648033592068e-01 1.353861373011e-01 1.648033592068e-01 1.353861373011e-01 8.351966407932e-01 -1.353861373011e-01
1.758050000000e-01 8.351614912946e-01 -1.354916613027e-01 1.648385087054e-01 1.354916613027e-01 1.648385087054e-01 1.354916613027e-01 8.351614912946e-01 -1.354916613027e-01
1.758787500000e-01 8.351263231090e-01 -1.355971501001e-01 1.648736768910e-01 1.355971501001e-01 1.648736768910e-01 1.355971501001e-01 8.351263231090e-01 -1.355971501001e-01
1.759525000000e-01 8.350911362504e-01 -1.357026037199e-01 1.649088637496e-01 1.357026037199e-01 1.649088637496e-01 1.357026037199e-01 8.350911362504e-01 -1.357026037199e-01
1.760262500000e-01 8.350559307324e-01 -1.358080221882e-01 1.649440692676e-01 1.358080221882e-01 1.649440692676e-01 1.358080221882e-01 8.350559307324e-01 -1.358080221882e-01
1.761000000000e-01 8.350207065689e-01 -1.359134055313e-01 1.649792934311e-01 1.359134055313e-01 1.649792934311e-01 1.359134055313e-01 8.350207065689e-01 -1.359134055313e-01
1.761737500000e-01 8.349854637734e-01 -1.360187537753e-01 1.650145362266e-01 1.360187537753e-01 1.650145362266e-01 1.360187537753e-01 8.349854637734e-01 -1.360187537753e-01
1.762475000000e-01 8.349502023597e-01 -1.361240669466e-01 1.650497976403e-01 1.361240669466e-01 1.650497976403e-01 1.361240669466e-01 8.349502023597e-01 -1.361240669466e-01
1.763212500000e-01 8.349149223415e-01 -1.362293450710e-01 1.650850776585e-01 1.362293450710e-01 1.650850776585e-01 1.362293450710e-01 8.349149223415e-01 -1.362293450710e-01
1.763950000000e-01 8.348796237324e-01 -1.363345881748e-01 1.651203762676e-01 1.363345881748e-01 1.651203762676e-01 1.363345881748e-01 8.348796237324e-01 -1.363345881748e-01
1.764687500000e-01 8.348443065460e-01 -1.364397962839e-01 1.651556934540e-01 1.364397962839e-01 1.651556934540e-01 1.364397962839e-01 8.348443065460e-01 -1.364397962839e-01
1.765425000000e-01 8.348089707960e-01 -1.365449694243e-01 1.651910292040e-01 1.365449694243e-01 1.651910292040e-01 1.365449694243e-01 8.348089707960e-01 -1.365449694243e-01
1.766162500000e-01 8.347736164959e-01 -1.366501076220e-01 1.652263835041e-01 1.366501076220e-01 1.652263835041e-01 1.366501076220e-01 8.347736164959e-01 -1.366501076220e-01
1.766900000000e-01 8.347382436594e-01 -1.367552109027e-01 1.652617563406e-01 1.367552109027e-01 1.652617563406e-01 1.367552109027e-01 8.347382436594e-01 -1.367552109027e-01
1.767637500000e-01 8.347028523000e-01 -1.368602792923e-01 1.652971477000e-01 1.368602792923e-01 1.652971477000e-01 1.368602792923e-01 8.347028523000e-01 -1.368602792923e-01
1.768375000000e-01 8.346674424312e-01 -1.369653128167e-01 1.653325575688e-01 1.369653128167e-01 1.653325575688e-01 1.369653128167e-01 8.346674424312e-01 -1.369653128167e-01
1.769112500000e-01 8.346320140665e-01 -1.370703115016e-01 1.653679859335e-01 1.370703115016e-01 1.653679859335e-01 1.370703115016e-01 8.346320140665e-01 -1.370703115016e-01
1.769850000000e-01 8.345965672195e-01 -1.371752753726e-01 1.654034327805e-01 1.371752753726e-01 1.654034327805e-01 1.371752753726e-01 8.345965672195e-01 -1.371752753726e-01
1.770587500000e-01 8.345611019037e-01 -1.372802044555e-01 1.654388980963e-01 1.372802044555e-01 1.654388980963e-01 1.372802044555e-01 8.345611019037e-01 -1.372802044555e-01
1.771325000000e-01 8.345256181324e-01 -1.373850987759e-01 1.654743818676e-01 1.373850987759e-01 1.654743818676e-01 1.373850987759e-01 8.345256181324e-01 -1.373850987759e-01
1.772062500000e-01 8.344901159192e-01 -1.374899583592e-01 1.655098840808e-01 1.374899583592e-01 1.655098840808e-01 1.374899583592e-01 8.344901159192e-01 -1.374899583592e-01
1.772800000000e-01 8.344545952775e-01 -1.375947832311e-01 1.655454047225e-01 1.375947832311e-01 1.655454047225e-01 1.375947832311e-01 8.344545952775e-01 -1.375947832311e-01
1.773537500000e-01 8.344190562207e-01 -1.376995734170e-01 1.655809437793e-01 1.376995734170e-01 1.655809437793e-01 1.376995734170e-01 8.344190562207e-01 -1.376995734170e-01
1.774275000000e-01 8.343834987622e-01 -1.378043289424e-01 1.656165012378e-01 1.378043289424e-01 1.656165012378e-01 1.378043289424e-01 8.343834987622e-01 -1.378043289424e-01
1.775012500000e-01 8.343479229153e-01 -1.379090498327e-01 1.656520770847e-01 1.379090498327e-01 1.656520770847e-01 1.379090498327e-01 8.343479229153e-01 -1.379090498327e-01
1.775750000000e-01 8.343123286935e-01 -1.380137361132e-01 1.656876713065e-01 1.380137361132e-01 1.656876713065e-01 1.380137361132e-01 8.343123286935e-01 -1.380137361132e-01
1.776487500000e-01 8.342767161100e-01 -1.381183878091e-01 1.657232838900e-01 1.381183878091e-01 1.657232838900e-01 1.381183878091e-01 8.342767161100e-01 -1.381183878091e-01
1.777225000000e-01 8.342410851782e-01 -1.382230049459e-01 1.657589148218e-01 1.382230049459e-01 1.657589148218e-01 1.382230049459e-01 8.342410851782e-01 -1.382230049459e-01
1.777962500000e-01 8.342054359114e-01 -1.383275875487e-01 1.657945640886e-01 1.383275875487e-01 1.657945640886e-01 1.383275875487e-01 8.342054359114e-01 -1.383275875487e-01
1.778700000000e-01 8.341697683229e-01 -1.384321356427e-01 1.658302316771e-01 1.384321356427e-01 1.658302316771e-01 1.384321356427e-01 8.341697683229e-01 -1.384321356427e-01
1.779437500000e-01 8.341340824259e-01 -1.385366492530e-01 1.658659175741e-01 1.385366492530e-01 1.658659175741e-01 1.385366492530e-01 8.341340824259e-01 -1.385366492530e-01
1.780175000000e-01 8.340983782338e-01 -1.386411284046e-01 1.659016217662e-01 1.386411284046e-01 1.659016217662e-01 1.386411284046e-01 8.340983782338e-01 -1.386411284046e-01
1.780912500000e-01 8.340626557596e-01 -1.387455731228e-01 1.659373442404e-01 1.387455731228e-01 1.659373442404e-01 1.387455731228e-01 8.340626557596e-01 -1.387455731228e-01
1.781650000000e-01 8.340269150167e-01 -1.388499834324e-01 1.659730849833e-01 1.388499834324e-01 1.659730849833e-01 1.388499834324e-01 8.340269150167e-01 -1.388499834324e-01
1.782387500000e-01 8.339911560182e-01 -1.389543593584e-01 1.660088439818e-01 1.389543593584e-01 1.660088439818e-01 1.389543593584e-01 8.339911560182e-01 -1.389543593584e-01
1.783125000000e-01 8.339553787774e-01 -1.390587009258e-01 1.660446212226e-01 1.390587009258e-01 1.660446212226e-01 1.390587009258e-01 8.339553787774e-01 -1.390587009258e-01
1.783862500000e-01 8.339195833073e-01 -1.391630081594e-01 1.660804166927e-01 1.391630081594e-01 1.660804166927e-01 1.391630081594e-01 8.339195833073e-01 -1.391630081594e-01
1.784600000000e-01 8.338837696212e-01 -1.392672810841e-01 1.661162303788e-01 1.392672810841e-01 1.661162303788e-01 1.392672810841e-01 8.338837696212e-01 -1.392672810841e-01
1.785337500000e-01 8.338479377321e-01 -1.393715197246e-01 1.661520622679e-01 1.393715197246e-01 1.661520622679e-01 1.393715197246e-01 8.338479377321e-01 -1.393715197246e-01
1.786075000000e-01 8.338120876531e-01 -1.394757241057e-01 1.661879123469e-01 1.394757241057e-01 1.661879123469e-01 1.394757241057e-01 8.338120876531e-01 -1.394757241057e-01
1.786812500000e-01 8.337762193974e-01 -1.395798942521e-01 1.662237806026e-01 1.395798942521e-01 1.662237806026e-01 1.395798942521e-01 8.337762193974e-01 -1.395798942521e-01
1.787550000000e-01 8.337403329781e-01 -1.396840301884e-01 1.662596670219e-01 1.396840301884e-01 1.662596670219e-01 1.396840301884e-01 8.337403329781e-01 -1.396840301884e-01
1.788287500000e-01 8.337044284081e-01 -1.397881319394e-01 1.662955715919e-01 1.397881319394e-01 1.662955715919e-01 1.397881319394e-01 8.337044284081e-01 -1.397881319394e-01
1.789025000000e-01 8.336685057005e-01 -1.398921995295e-01 1.663314942995e-01 1.398921995295e-01 1.663314942995e-01 1.398921995295e-01 8.336685057005e-01 -1.398921995295e-01
1.789762500000e-01 8.336325648684e-01 -1.399962329834e-01 1.663674351316e-01 1.399962329834e-01 1.663674351316e-01 1.399962329834e-01 8.336325648684e-01 -1.399962329834e-01
1.790500000000e-01 8.335966059248e-01 -1.401002323254e-01 1.664033940752e-01 1.401002323254e-01 1.664033940752e-01 1.401002323254e-01 8.335966059248e-01 -1.401002323254e-01
1.791237500000e-01 8.335606288826e-01 -1.402041975801e-01 1.664393711174e-01 1.402041975801e-01 1.664393711174e-01 1.402041975801e-01 8.335606288826e-01 -1.402041975801e-01
1.791975000000e-01 8.335246337548e-01 -1.403081287719e-01 1.664753662452e-01 1.403081287719e-01 1.664753662452e-01 1.403081287719e-01 8.335246337548e-01 -1.403081287719e-01
1.792712500000e-01 8.334886205544e-01 -1.404120259252e-01 1.665113794456e-01 1.404120259252e-01 1.665113794456e-01 1.404120259252e-01 8.334886205544e-01 -1.404120259252e-01
1.793450000000e-01 8.334525892943e-01 -1.405158890642e-01 1.665474107057e-01 1.405158890642e-01 1.665474107057e-01 1.405158890642e-01 8.334525892943e-01 -1.405158890642e-01
1.794187500000e-01 8.334165399874e-01 -1.406197182133e-01 1.665834600126e-01 1.406197182133e-01 1.665834600126e-01 1.406197182133e-01 8.334165399874e-01 -1.406197182133e-01
1.794925000000e-01 8.333804726466e-01 -1.407235133967e-01 1.666195273534e-01 1.407235133967e-01 1.666195273534e-01 1.407235133967e-01 8.333804726466e-01 -1.407235133967e-01
1.795662500000e-01 8.333443872849e-01 -1.408272746386e-01 1.666556127151e-01 1.408272746386e-01 1.666556127151e-01 1.408272746386e-01 8.333443872849e-01 -1.408272746386e-01
1.796400000000e-01 8.333082839150e-01 -1.409310019632e-01 1.666917160850e-01 1.409310019632e-01 1.666917160850e-01 1.409310019632e-01 8.333082839150e-01 -1.409310019632e-01
1.797137500000e-01 8.332721625499e-01 -1.410346953947e-01 1.667278374501e-01 1.410346953947e-01 1.667278374501e-01 1.410346953947e-01 8.332721625499e-01 -1.410346953947e-01
1.797875000000e-01 8.332360232023e-01 -1.411383549570e-01 1.667639767977e-01 1.411383549570e-01 1.667639767977e-01 1.411383549570e-01 8.332360232023e-01 -1.411383549570e-01
1.798612500000e-01 8.331998658852e-01 -1.412419806743e-01 1.668001341148e-01 1.412419806743e-01 1.668001341148e-01 1.412419806743e-01 8.331998658852e-01 -1.412419806743e-01
1.799350000000e-01 8.331636906112e-01 -1.413455725705e-01 1.668363093888e-01 1.413455725705e-01 1.668363093888e-01 1.413455725705e-01 8.331636906112e-01 -1.413455725705e-01
1.800087500000e-01 8.331274973933e-01 -1.414491306696e-01 1.668725026067e-01 1.414491306696e-01 1.668725026067e-01 1.414491306696e-01 8.331274973933e-01 -1.414491306696e-01
1.800825000000e-01 8.330912862440e-01 -1.415526549955e-01 1.669087137560e-01 1.415526549955e-01 1.669087137560e-01 1.415526549955e-01 8.330912862440e-01 -1.415526549955e-01
1.801562500000e-01 8.330550571763e-01 -1.416561455721e-01 1.669449428237e-01 1.416561455721e-01 1.669449428237e-01 1.416561455721e-01 8.330550571763e-01 -1.416561455721e-01
1.802300000000e-01 8.330188102029e-01 -1.417596024233e-01 1.669811897971e-01 1.417596024233e-01 1.669811897971e-01 1.417596024233e-01 8.330188102029e-01 -1.417596024233e-01
1.803037500000e-01 8.329825453364e-01 -1.418630255728e-01 1.670174546636e-01 1.418630255728e-01 1.670174546636e-01 1.418630255728e-01 8.329825453364e-01 -1.418630255728e-01
1.803775000000e-01 8.329462625896e-01 -1.419664150444e-01 1.670537374104e-01 1.419664150444e-01 1.670537374104e-01 1.419664150444e-01 8.329462625896e-01 -1.419664150444e-01
1.804512500000e-01 8.329099619751e-01 -1.420697708619e-01 1.670900380249e-01 1.420697708619e-01 1.670900380249e-01 1.420697708619e-01 8.329099619751e-01 -1.420697708619e-01
1.805250000000e-01 8.328736435056e-01 -1.421730930488e-01 1.671263564944e-01 1.421730930488e-01 1.671263564944e-01 1.421730930488e-01 8.328736435056e-01 -1.421730930488e-01
1.805987500000e-01 8.328373071939e-01 -1.422763816288e-01 1.671626928061e-01 1.422763816288e-01 1.671626928061e-01 1.422763816288e-01 8.328373071939e-01 -1.422763816288e-01
1.806725000000e-01 8.328009530524e-01 -1.423796366256e-01 1.671990469476e-01 1.423796366256e-01 1.671990469476e-01 1.423796366256e-01 8.328009530524e-01 -1.423796366256e-01
1.807462500000e-01 8.327645810939e-01 -1.424828580626e-01 1.672354189061e-01 1.424828580626e-01 1.672354189061e-01 1.424828580626e-01 8.327645810939e-01 -1.424828580626e-01
1.808200000000e-01 8.327281913309e-01 -1.425860459635e-01 1.672718086691e-01 1.425860459635e-01 1.672718086691e-01 1.425860459635e-01 8.327281913309e-01 -1.425860459635e-01
1.808937500000e-01 8.326917837761e-01 -1.426892003517e-01 1.673082162239e-01 1.426892003517e-01 1.673082162239e-01 1.426892003517e-01 8.326917837761e-01 -1.426892003517e-01
1.809675000000e-01 8.326553584420e-01 -1.427923212505e-01 1.673446415580e-01 1.427923212505e-01 1.673446415580e-01 1.427923212505e-01 8.326553584420e-01 -1.427923212505e-01
1.810412500000e-01 8.326189153411e-01 -1.428954086835e-01 1.673810846589e-01 1.428954086835e-01 1.673810846589e-01 1.428954086835e-01 8.326189153411e-01 -1.428954086835e-01
1.811150000000e-01 8.325824544861e-01 -1.429984626740e-01 1.674175455139e-01 1.429984626740e-01 1.674175455139e-01 1.429984626740e-01 8.325824544861e-01 -1.429984626740e-01
1.811887500000e-01 8.325459758894e-01 -1.431014832452e-01 1.674540241106e-01 1.431014832452e-01 1.674540241106e-01 1.431014832452e-01 8.325459758894e-01 -1.431014832452e-01
1.812625000000e-01 8.325094795635e-01 -1.432044704206e-01 1.674905204365e-01 1.432044704206e-01 1.674905204365e-01 1.432044704206e-01 8.325094795635e-01 -1.432044704206e-01
1.813362500000e-01 8.324729655210e-01 -1.433074242233e-01 1.675270344790e-01 1.433074242233e-01 1.675270344790e-01 1.433074242233e-01 8.324729655210e-01 -1.433074242233e-01
1.814100000000e-01 8.324364337743e-01 -1.434103446765e-01 1.675635662257e-01 1.434103446765e-01 1.675635662257e-01 1.434103446765e-01 8.324364337743e-01 -1.434103446765e-01
1.814837500000e-01 8.323998843359e-01 -1.435132318034e-01 1.676001156641e-01 1.435132318034e-01 1.676001156641e-01 1.435132318034e-01 8.323998843359e-01 -1.435132318034e-01
1.815575000000e-01 8.323633172182e-01 -1.436160856271e-01 1.676366827818e-01 1.436160856271e-01 1.676366827818e-01 1.436160856271e-01 8.323633172182e-01 -1.436160856271e-01
1.816312500000e-01 8.323267324336e-01 -1.437189061707e-01 1.676732675664e-01 1.437189061707e-01 1.676732675664e-01 1.437189061707e-01 8.323267324336e-01 -1.437189061707e-01
1.817050000000e-01 8.322901299947e-01 -1.438216934572e-01 1.677098700053e-01 1.438216934572e-01 1.677098700053e-01 1.438216934572e-01 8.322901299947e-01 -1.438216934572e-01
1.817787500000e-01 8.322535099136e-01 -1.439244475097e-01 1.677464900864e-01 1.439244475097e-01 1.677464900864e-01 1.439244475097e-01 8.322535099136e-01 -1.439244475097e-01
1.818525000000e-01 8.322168722030e-01 -1.440271683511e-01 1.677831277970e-01 1.440271683511e-01 1.677831277970e-01 1.440271683511e-01 8.322168722030e-01 -1.440271683511e-01
1.819262500000e-01 8.321802168750e-01 -1.441298560044e-01 1.678197831250e-01 1.441298560044e-01 1.678197831250e-01 1.441298560044e-01 8.321802168750e-01 -1.441298560044e-01
1.820000000000e-01 8.321435439422e-01 -1.442325104924e-01 1.678564560578e-01 1.442325104924e-01 1.678564560578e-01 1.442325104924e-01 8.321435439422e-01 -1.442325104924e-01
1.820737500000e-01 8.321068534167e-01 -1.443351318380e-01 1.678931465833e-01 1.443351318380e-01 1.678931465833e-01 1.443351318380e-01 8.321068534167e-01 -1.443351318380e-01
1.821475000000e-01 8.320701453110e-01 -1.444377200640e-01 1.679298546890e-01 1.444377200640e-01 1.679298546890e-01 1.444377200640e-01 8.320701453110e-01 -1.444377200640e-01
1.822212500000e-01 8.320334196373e-01 -1.445402751932e-01 1.679665803627e-01 1.445402751932e-01 1.679665803627e-01 1.445402751932e-01 8.320334196373e-01 -1.445402751932e-01
1.822950000000e-01 8.319966764079e-01 -1.446427972484e-01 1.680033235921e-01 1.446427972484e-01 1.680033235921e-01 1.446427972484e-01 8.319966764079e-01 -1.446427972484e-01
1.823687500000e-01 8.319599156351e-01 -1.447452862521e-01 1.680400843649e-01 1.447452862521e-01 1.680400843649e-01 1.447452862521e-01 8.319599156351e-01 -1.447452862521e-01
1.824425000000e-01 8.319231373312e-01 -1.448477422272e-01 1.680768626688e-01 1.448477422272e-01 1.680768626688e-01 1.448477422272e-01 8.319231373312e-01 -1.448477422272e-01
1.825162500000e-01 8.318863415084e-01 -1.449501651962e-01 1.681136584916e-01 1.449501651962e-01 1.681136584916e-01 1.449501651962e-01 8.318863415084e-01 -1.449501651962e-01
1.825900000000e-01 8.318495281789e-01 -1.450525551816e-01 1.681504718211e-01 1.450525551816e-01 1.681504718211e-01 1.450525551816e-01 8.318495281789e-01 -1.450525551816e-01
1.826637500000e-01 8.318126973550e-01 -1.451549122062e-01 1.681873026450e-01 1.451549122062e-01 1.681873026450e-01 1.451549122062e-01 8.318126973550e-01 -1.451549122062e-01
1.827375000000e-01 8.317758490488e-01 -1.452572362922e-01 1.682241509512e-01 1.452572362922e-01 1.682241509512e-01 1.452572362922e-01 8.317758490488e-01 -1.452572362922e-01
1.828112500000e-01 8.317389832725e-01 -1.453595274624e-01 1.682610167275e-01 1.453595274624e-01 1.682610167275e-01 1.453595274624e-01 8.317389832725e-01 -1.453595274624e-01
1.828850000000e-01 8.317021000384e-01 -1.454617857389e-01 1.682978999616e-01 1.454617857389e-01 1.682978999616e-01 1.454617857389e-01 8.317021000384e-01 -1.454617857389e-01
1.829587500000e-01 8.316651993585e-01 -1.455640111444e-01 1.683348006415e-01 1.455640111444e-01 1.683348006415e-01 1.455640111444e-01 8.316651993585e-01 -1.455640111444e-01
1.830325000000e-01 8.316282812449e-01 -1.456662037011e-01 1.683717187551e-01 1.456662037011e-01 1.683717187551e-01 1.456662037011e-01 8.316282812449e-01 -1.456662037011e-01
1.831062500000e-01 8.315913457099e-01 -1.457683634313e-01 1.684086542901e-01 1.457683634313e-01 1.684086542901e-01 1.457683634313e-01 8.315913457099e-01 -1.457683634313e-01
1.831800000000e-01 8.315543927655e-01 -1.458704903574e-01 1.684456072345e-01 1.458704903574e-01 1.684456072345e-01 1.458704903574e-01 8.315543927655e-01 -1.458704903574e-01
1.832537500000e-01 8.315174224238e-01 -1.459725845015e-01 1.684825775762e-01 1.459725845015e-01 1.684825775762e-01 1.459725845015e-01 8.315174224238e-01 -1.459725845015e-01
1.833275000000e-01 8.314804346969e-01 -1.460746458859e-01 1.685195653031e-01 1.460746458859e-01 1.685195653031e-01 1.460746458859e-01 8.314804346969e-01 -1.460746458859e-01
1.834012500000e-01 8.314434295969e-01 -1.461766745329e-01 1.685565704031e-01 1.461766745329e-01 1.685565704031e-01 1.461766745329e-01 8.314434295969e-01 -1.461766745329e-01
1.834750000000e-01 8.314064071358e-01 -1.462786704644e-01 1.685935928642e-01 1.462786704644e-01 1.685935928642e-01 1.462786704644e-01 8.314064071358e-01 -1.462786704644e-01
1.835487500000e-01 8.313693673256e-01 -1.463806337026e-01 1.686306326744e-01 1.463806337026e-01 1.686306326744e-01 1.463806337026e-01 8.313693673256e-01 -1.463806337026e-01
1.836225000000e-01 8.313323101783e-01 -1.464825642696e-01 1.686676898217e-01 1.464825642696e-01 1.686676898217e-01 1.464825642696e-01 8.313323101783e-01 -1.464825642696e-01
1.836962500000e-01 8.312952357060e-01 -1.465844621874e-01 1.687047642940e-01 1.465844621874e-01 1.687047642940e-01 1.465844621874e-01 8.312952357060e-01 -1.465844621874e-01
1.837700000000e-01 8.312581439207e-01 -1.466863274780e-01 1.687418560793e-01 1.466863274780e-01 1.687418560793e-01 1.466863274780e-01 8.312581439207e-01 -1.466863274780e-01
1.838437500000e-01 8.312210348343e-01 -1.467881601634e-01 1.687789651657e-01 1.467881601634e-01 1.687789651657e-01 1.467881601634e-01 8.312210348343e-01 -1.467881601634e-01
1.839175000000e-01 8.311839084587e-01 -1.468899602654e-01 1.688160915413e-01 1.468899602654e-01 1.688160915413e-01 1.468899602654e-01 8.311839084587e-01 -1.468899602654e-01
1.839912500000e-01 8.311467648060e-01 -1.469917278059e-01 1.688532351940e-01 1.469917278059e-01 1.688532351940e-01 1.469917278059e-01 8.311467648060e-01 -1.469917278059e-01
1.840650000000e-01 8.311096038881e-01 -1.470934628068e-01 1.688903961119e-01 1.470934628068e-01 1.688903961119e-01 1.470934628068e-01 8.311096038881e-01 -1.470934628068e-01
1.841387500000e-01 8.310724257168e-01 -1.471951652900e-01 1.689275742832e-01 1.471951652900e-01 1.689275742832e-01 1.471951652900e-01 8.310724257168e-01 -1.471951652900e-01
1.842125000000e-01 8.310352303041e-01 -1.472968352770e-01 1.689647696959e-01 1.472968352770e-01 1.689647696959e-01 1.472968352770e-01 8.310352303041e-01 -1.472968352770e-01
1.842862500000e-01 8.309980176619e-01 -1.473984727898e-01 1.690019823381e-01 1.473984727898e-01 1.690019823381e-01 1.473984727898e-01 8.309980176619e-01 -1.473984727898e-01
1.843600000000e-01 8.309607878020e-01 -1.475000778500e-01 1.690392121980e-01 1.475000778500e-01 1.690392121980e-01 1.475000778500e-01 8.309607878020e-01 -1.475000778500e-01
1.844337500000e-01 8.309235407363e-01 -1.476016504793e-01 1.690764592637e-01 1.476016504793e-01 1.690764592637e-01 1.476016504793e-01 8.309235407363e-01 -1.476016504793e-01
1.845075000000e-01 8.308862764767e-01 -1.477031906992e-01 1.691137235233e-01 1.477031906992e-01 1.691137235233e-01 1.477031906992e-01 8.308862764767e-01 -1.477031906992e-01
1.845812500000e-01 8.308489950349e-01 -1.478046985314e-01 1.691510049651e-01 1.478046985314e-01 1.691510049651e-01 1.478046985314e-01 8.308489950349e-01 -1.478046985314e-01
1.846550000000e-01 8.308116964228e-01 -1.479061739975e-01 1.691883035772e-01 1.479061739975e-01 1.691883035772e-01 1.479061739975e-01 8.308116964228e-01 -1.479061739975e-01
1.847287500000e-01 8.307743806523e-01 -1.480076171189e-01 1.692256193477e-01 1.480076171189e-01 1.692256193477e-01 1.480076171189e-01 8.307743806523e-01 -1.480076171189e-01
1.848025000000e-01 8.307370477350e-01 -1.481090279172e-01 1.692629522650e-01 1.481090279172e-01 1.692629522650e-01 1.481090279172e-01 8.307370477350e-01 -1.481090279172e-01
1.848762500000e-01 8.306996976827e-01 -1.482104064137e-01 1.693003023173e-01 1.482104064137e-01 1.693003023173e-01 1.482104064137e-01 8.306996976827e-01 -1.482104064137e-01
1.849500000000e-01 8.306623305073e-01 -1.483117526300e-01 1.693376694927e-01 1.483117526300e-01 1.693376694927e-01 1.483117526300e-01 8.306623305073e-01 -1.483117526300e-01
1.850237500000e-01 8.306249462204e-01 -1.484130665873e-01 1.693750537796e-01 1.484130665873e-01 1.693750537796e-01 1.484130665873e-01 8.306249462204e-01 -1.484130665873e-01
1.850975000000e-01 8.305875448338e-01 -1.485143483071e-01 1.694124551662e-01 1.485143483071e-01 1.694124551662e-01 1.485143483071e-01 8.305875448338e-01 -1.485143483071e-01
1.851712500000e-01 8.305501263592e-01 -1.486155978105e-01 1.694498736408e-01 1.486155978105e-01 1.694498736408e-01 1.486155978105e-01 8.305501263592e-01 -1.486155978105e-01
1.852450000000e-01 8.305126908083e-01 -1.487168151190e-01 1.694873091917e-01 1.487168151190e-01 1.694873091917e-01 1.487168151190e-01 8.305126908083e-01 -1.487168151190e-01
1.853187500000e-01 8.304752381929e-01 -1.488180002538e-01 1.695247618071e-01 1.488180002538e-01 1.695247618071e-01 1.488180002538e-01 8.304752381929e-01 -1.488180002538e-01
1.853925000000e-01 8.304377685245e-01 -1.489191532359e-01 1.695622314755e-01 1.489191532359e-01 1.695622314755e-01 1.489191532359e-01 8.304377685245e-01 -1.489191532359e-01
1.854662500000e-01 8.304002818148e-01 -1.490202740867e-01 1.695997181852e-01 1.490202740867e-01 1.695997181852e-01 1.490202740867e-01 8.304002818148e-01 -1.490202740867e-01
1.855400000000e-01 8.303627780755e-01 -1.491213628273e-01 1.696372219245e-01 1.491213628273e-01 1.696372219245e-01 1.491213628273e-01 8.303627780755e-01 -1.491213628273e-01
1.856137500000e-01 8.303252573182e-01 -1.492224194786e-01 1.696747426818e-01 1.492224194786e-01 1.696747426818e-01 1.492224194786e-01 8.303252573182e-01 -1.492224194786e-01
1.856875000000e-01 8.302877195546e-01 -1.493234440619e-01 1.697122804454e-01 1.493234440619e-01 1.697122804454e-01 1.493234440619e-01 8.302877195546e-01 -1.493234440619e-01
1.857612500000e-01 8.302501647962e-01 -1.494244365981e-01 1.697498352038e-01 1.494244365981e-01 1.697498352038e-01 1.494244365981e-01 8.302501647962e-01 -1.494244365981e-01
1.858350000000e-01 8.302125930546e-01 -1.495253971082e-01 1.697874069454e-01 1.495253971082e-01 1.697874069454e-01 1.495253971082e-01 8.302125930546e-01 -1.495253971082e-01
1.859087500000e-01 8.301750043414e-01 -1.496263256131e-01 1.698249956586e-01 1.496263256131e-01 1.698249956586e-01 1.496263256131e-01 8.301750043414e-01 -1.496263256131e-01
1.859825000000e-01 8.301373986683e-01 -1.497272221339e-01 1.698626013317e-01 1.497272221339e-01 1.698626013317e-01 1.497272221339e-01 8.301373986683e-01 -1.497272221339e-01
1.860562500000e-01 8.300997760466e-01 -1.498280866914e-01 1.699002239534e-01 1.498280866914e-01 1.699002239534e-01 1.498280866914e-01 8.300997760466e-01 -1.498280866914e-01
1.861300000000e-01 8.300621364880e-01 -1.499289193064e-01 1.699378635120e-01 1.499289193064e-01 1.699378635120e-01 1.499289193064e-01 8.300621364880e-01 -1.499289193064e-01
1.862037500000e-01 8.300244800040e-01 -1.500297199998e-01 1.699755199960e-01 1.500297199998e-01 1.699755199960e-01 1.500297199998e-01 8.300244800040e-01 -1.500297199998e-01
1.862775000000e-01 8.299868066061e-01 -1.501304887923e-01 1.700131933939e-01 1.501304887923e-01 1.700131933939e-01 1.501304887923e-01 8.299868066061e-01 -1.501304887923e-01
1.863512500000e-01 8.299491163058e-01 -1.502312257047e-01 1.700508836942e-01 1.502312257047e-01 1.700508836942e-01 1.502312257047e-01 8.299491163058e-01 -1.502312257047e-01
1.864250000000e-01 8.299114091146e-01 -1.503319307578e-01 1.700885908854e-01 1.503319307578e-01 1.700885908854e-01 1.503319307578e-01 8.299114091146e-01 -1.503319307578e-01
1.864987500000e-01 8.298736850439e-01 -1.504326039721e-01 1.701263149561e-01 1.504326039721e-01 1.701263149561e-01 1.504326039721e-01 8.298736850439e-01 -1.504326039721e-01
1.865725000000e-01 8.298359441053e-01 -1.505332453685e-01 1.701640558947e-01 1.505332453685e-01 1.701640558947e-01 1.505332453685e-01 8.298359441053e-01 -1.505332453685e-01
1.866462500000e-01 8.297981863100e-01 -1.506338549673e-01 1.702018136900e-01 1.506338549673e-01 1.702018136900e-01 1.506338549673e-01 8.297981863100e-01 -1.506338549673e-01
1.867200000000e-01 8.297604116697e-01 -1.507344327894e-01 1.702395883303e-01 1.507344327894e-01 1.702395883303e-01 1.507344327894e-01 8.297604116697e-01 -1.507344327894e-01
1.867937500000e-01 8.297226201957e-01 -1.508349788551e-01 1.702773798043e-01 1.508349788551e-01 1.702773798043e-01 1.508349788551e-01 8.297226201957e-01 -1.508349788551e-01
1.868675000000e-01 8.296848118993e-01 -1.509354931850e-01 1.703151881007e-01 1.509354931850e-01 1.703151881007e-01 1.509354931850e-01 8.296848118993e-01 -1.509354931850e-01
1.869412500000e-01 8.296469867921e-01 -1.510359757997e-01 1.703530132079e-01 1.510359757997e-01 1.703530132079e-01 1.510359757997e-01 8.296469867921e-01 -1.510359757997e-01
1.870150000000e-01 8.296091448853e-01 -1.511364267194e-01 1.703908551147e-01 1.511364267194e-01 1.703908551147e-01 1.511364267194e-01 8.296091448853e-01 -1.511364267194e-01
1.870887500000e-01 8.295712861903e-01 -1.512368459648e-01 1.704287138097e-01 1.512368459648e-01 1.704287138097e-01 1.512368459648e-01 8.295712861903e-01 -1.512368459648e-01
1.871625000000e-01 8.295334107186e-01 -1.513372335561e-01 1.704665892814e-01 1.513372335561e-01 1.704665892814e-01 1.513372335561e-01 8.295334107186e-01 -1.513372335561e-01
1.872362500000e-01 8.294955184813e-01 -1.514375895136e-01 1.705044815187e-01 1.514375895136e-01 1.705044815187e-01 1.514375895136e-01 8.294955184813e-01 -1.514375895136e-01
1.873100000000e-01 8.294576094899e-01 -1.515379138578e-01 1.705423905101e-01 1.515379138578e-01 1.705423905101e-01 1.515379138578e-01 8.294576094899e-01 -1.515379138578e-01
1.873837500000e-01 8.294196837556e-01 -1.516382066088e-01 1.705803162444e-01 1.516382066088e-01 1.705803162444e-01 1.516382066088e-01 8.294196837556e-01 -1.516382066088e-01
1.874575000000e-01 8.293817412898e-01 -1.517384677870e-01 1.706182587102e-01 1.517384677870e-01 1.706182587102e-01 1.517384677870e-01 8.293817412898e-01 -1.517384677870e-01
1.875312500000e-01 8.293437821038e-01 -1.518386974125e-01 1.706562178962e-01 1.518386974125e-01 1.706562178962e-01 1.518386974125e-01 8.293437821038e-01 -1.518386974125e-01
1.876050000000e-01 8.293058062087e-01 -1.519388955055e-01 1.706941937913e-01 1.519388955055e-01 1.706941937913e-01 1.519388955055e-01 8.293058062087e-01 -1.519388955055e-01
1.876787500000e-01 8.292678136159e-01 -1.520390620862e-01 1.707321863841e-01 1.520390620862e-01 1.707321863841e-01 1.520390620862e-01 8.292678136159e-01 -1.520390620862e-01
1.877525000000e-01 8.292298043366e-01 -1.521391971747e-01 1.707701956634e-01 1.521391971747e-01 1.707701956634e-01 1.521391971747e-01 8.292298043366e-01 -1.521391971747e-01
1.878262500000e-01 8.291917783821e-01 -1.522393007910e-01 1.708082216179e-01 1.522393007910e-01 1.708082216179e-01 1.522393007910e-01 8.291917783821e-01 -1.522393007910e-01
1.879000000000e-01 8.291537357635e-01 -1.523393729553e-01 1.708462642365e-01 1.523393729553e-01 1.708462642365e-01 1.523393729553e-01 8.291537357635e-01 -1.523393729553e-01
1.879737500000e-01 8.291156764921e-01 -1.524394136875e-01 1.708843235079e-01 1.524394136875e-01 1.708843235079e-01 1.524394136875e-01 8.291156764921e-01 -1.524394136875e-01
1.880475000000e-01 8.290776005791e-01 -1.525394230076e-01 1.709223994209e-01 1.525394230076e-01 1.709223994209e-01 1.525394230076e-01 8.290776005791e-01 -1.525394230076e-01
1.881212500000e-01 8.290395080357e-01 -1.526394009356e-01 1.709604919643e-01 1.526394009356e-01 1.709604919643e-01 1.526394009356e-01 8.290395080357e-01 -1.526394009356e-01
1.881950000000e-01 8.290013988729e-01 -1.527393474914e-01 1.709986011271e-01 1.527393474914e-01 1.709986011271e-01 1.527393474914e-01 8.290013988729e-01 -1.527393474914e-01
1.882687500000e-01 8.289632731021e-01 -1.528392626949e-01 1.710367268979e-01 1.528392626949e-01 1.710367268979e-01 1.528392626949e-01 8.289632731021e-01 -1.528392626949e-01
1.883425000000e-01 8.289251307342e-01 -1.529391465659e-01 1.710748692658e-01 1.529391465659e-01 1.710748692658e-01 1.529391465659e-01 8.289251307342e-01 -1.529391465659e-01
1.884162500000e-01 8.288869717805e-01 -1.530389991243e-01 1.711130282195e-01 1.530389991243e-01 1.711130282195e-01 1.530389991243e-01 8.288869717805e-01 -1.530389991243e-01
1.884900000000e-01 8.288487962521e-01 -1.531388203898e-01 1.711512037479e-01 1.531388203898e-01 1.711512037479e-01 1.531388203898e-01 8.288487962521e-01 -1.531388203898e-01
1.885637500000e-01 8.288106041601e-01 -1.532386103822e-01 1.711893958399e-01 1.532386103822e-01 1.711893958399e-01 1.532386103822e-01 8.288106041601e-01 -1.532386103822e-01
1.886375000000e-01 8.287723955155e-01 -1.533383691212e-01 1.712276044845e-01 1.533383691212e-01 1.712276044845e-01 1.533383691212e-01 8.287723955155e-01 -1.533383691212e-01
1.887112500000e-01 8.287341703295e-01 -1.534380966266e-01 1.712658296705e-01 1.534380966266e-01 1.712658296705e-01 1.534380966266e-01 8.287341703295e-01 -1.534380966266e-01
1.887850000000e-01 8.286959286131e-01 -1.535377929180e-01 1.713040713869e-01 1.535377929180e-01 1.713040713869e-01 1.535377929180e-01 8.286959286131e-01 -1.535377929180e-01
1.888587500000e-01 8.286576703774e-01 -1.536374580149e-01 1.713423296226e-01 1.536374580149e-01 1.713423296226e-01 1.536374580149e-01 8.286576703774e-01 -1.536374580149e-01
1.889325000000e-01 8.286193956335e-01 -1.537370919371e-01 1.713806043665e-01 1.537370919371e-01 1.713806043665e-01 1.537370919371e-01 8.286193956335e-01 -1.537370919371e-01
1.890062500000e-01 8.285811043922e-01 -1.538366947041e-01 1.714188956078e-01 1.538366947041e-01 1.714188956078e-01 1.538366947041e-01 8.285811043922e-01 -1.538366947041e-01
1.890800000000e-01 8.285427966648e-01 -1.539362663354e-01 1.714572033352e-01 1.539362663354e-01 1.714572033352e-01 1.539362663354e-01 8.285427966648e-01 -1.539362663354e-01
1.891537500000e-01 8.285044724621e-01 -1.540358068505e-01 1.714955275379e-01 1.540358068505e-01 1.714955275379e-01 1.540358068505e-01 8.285044724621e-01 -1.540358068505e-01
1.892275000000e-01 8.284661317952e-01 -1.541353162689e-01 1.715338682048e-01 1.541353162689e-01 1.715338682048e-01 1.541353162689e-01 8.284661317952e-01 -1.541353162689e-01
1.893012500000e-01 8.284277746751e-01 -1.542347946100e-01 1.715722253249e-01 1.542347946100e-01 1.715722253249e-01 1.542347946100e-01 8.284277746751e-01 -1.542347946100e-01
1.893750000000e-01 8.283894011127e-01 -1.543342418933e-01 1.716105988873e-01 1.543342418933e-01 1.716105988873e-01 1.543342418933e-01 8.283894011127e-01 -1.543342418933e-01
1.894487500000e-01 8.283510111189e-01 -1.544336581380e-01 1.716489888811e-01 1.544336581380e-01 1.716489888811e-01 1.544336581380e-01 8.283510111189e-01 -1.544336581380e-01
1.895225000000e-01 8.283126047048e-01 -1.545330433637e-01 1.716873952952e-01 1.545330433637e-01 1.716873952952e-01 1.545330433637e-01 8.283126047048e-01 -1.545330433637e-01
1.895962500000e-01 8.282741818813e-01 -1.546323975895e-01 1.717258181187e-01 1.546323975895e-01 1.717258181187e-01 1.546323975895e-01 8.282741818813e-01 -1.546323975895e-01
1.896700000000e-01 8.282357426592e-01 -1.547317208348e-01 1.717642573408e-01 1.547317208348e-01 1.717642573408e-01 1.547317208348e-01 8.282357426592e-01 -1.547317208348e-01
1.897437500000e-01 8.281972870495e-01 -1.548310131188e-01 1.718027129505e-01 1.548310131188e-01 1.718027129505e-01 1.548310131188e-01 8.281972870495e-01 -1.548310131188e-01
1.898175000000e-01 8.281588150632e-01 -1.549302744607e-01 1.718411849368e-01 1.549302744607e-01 1.718411849368e-01 1.549302744607e-01 8.281588150632e-01 -1.549302744607e-01
1.898912500000e-01 8.281203267109e-01 -1.550295048797e-01 1.718796732891e-01 1.550295048797e-01 1.718796732891e-01 1.550295048797e-01 8.281203267109e-01 -1.550295048797e-01
1.899650000000e-01 8.280818220038e-01 -1.551287043950e-01 1.719181779962e-01 1.551287043950e-01 1.719181779962e-01 1.551287043950e-01 8.280818220038e-01 -1.551287043950e-01
1.900387500000e-01 8.280433009525e-01 -1.552278730258e-01 1.719566990475e-01 1.552278730258e-01 1.719566990475e-01 1.552278730258e-01 8.280433009525e-01 -1.552278730258e-01
1.901125000000e-01 8.280047635680e-01 -1.553270107910e-01 1.719952364320e-01 1.553270107910e-01 1.719952364320e-01 1.553270107910e-01 8.280047635680e-01 -1.553270107910e-01
1.901862500000e-01 8.279662098611e-01 -1.554261177098e-01 1.720337901389e-01 1.554261177098e-01 1.720337901389e-01 1.554261177098e-01 8.279662098611e-01 -1.554261177098e-01
1.902600000000e-01 8.279276398426e-01 -1.555251938012e-01 1.720723601574e-01 1.555251938012e-01 1.720723601574e-01 1.555251938012e-01 8.279276398426e-01 -1.555251938012e-01
1.903337500000e-01 8.278890535233e-01 -1.556242390842e-01 1.721109464767e-01 1.556242390842e-01 1.721109464767e-01 1.556242390842e-01 8.278890535233e-01 -1.556242390842e-01
1.904075000000e-01 8.278504509141e-01 -1.557232535778e-01 1.721495490859e-01 1.557232535778e-01 1.721495490859e-01 1.557232535778e-01 8.278504509141e-01 -1.557232535778e-01
1.904812500000e-01 8.278118320256e-01 -1.558222373010e-01 1.721881679744e-01 1.558222373010e-01 1.721881679744e-01 1.558222373010e-01 8.278118320256e-01 -1.558222373010e-01
1.905550000000e-01 8.277731968688e-01 -1.559211902726e-01 1.722268031312e-01 1.559211902726e-01 1.722268031312e-01 1.559211902726e-01 8.277731968688e-01 -1.559211902726e-01
1.906287500000e-01 8.277345454543e-01 -1.560201125115e-01 1.722654545457e-01 1.560201125115e-01 1.722654545457e-01 1.560201125115e-01 8.277345454543e-01 -1.560201125115e-01
1.907025000000e-01 8.276958777930e-01 -1.561190040366e-01 1.723041222070e-01 1.561190040366e-01 1.723041222070e-01 1.561190040366e-01 8.276958777930e-01 -1.561190040366e-01
1.907762500000e-01 8.276571938955e-01 -1.562178648666e-01 1.723428061045e-01 1.562178648666e-01 1.723428061045e-01 1.562178648666e-01 8.276571938955e-01 -1.562178648666e-01
1.908500000000e-01 8.276184937725e-01 -1.563166950205e-01 1.723815062275e-01 1.563166950205e-01 1.723815062275e-01 1.563166950205e-01 8.276184937725e-01 -1.563166950205e-01
1.909237500000e-01 8.275797774349e-01 -1.564154945170e-01 1.724202225651e-01 1.564154945170e-01 1.724202225651e-01 1.564154945170e-01 8.275797774349e-01 -1.564154945170e-01
1.909975000000e-01 8.275410448933e-01 -1.565142633747e-01 1.724589551067e-01 1.565142633747e-01 1.724589551067e-01 1.565142633747e-01 8.275410448933e-01 -1.565142633747e-01
1.910712500000e-01 8.275022961584e-01 -1.566130016124e-01 1.724977038416e-01 1.566130016124e-01 1.724977038416e-01 1.566130016124e-01 8.275022961584e-01 -1.566130016124e-01
1.911450000000e-01 8.274635312409e-01 -1.567117092488e-01 1.725364687591e-01 1.567117092488e-01 1.725364687591e-01 1.567117092488e-01 8.274635312409e-01 -1.567117092488e-01
1.912187500000e-01 8.274247501515e-01 -1.568103863024e-01 1.725752498485e-01 1.568103863024e-01 1.725752498485e-01 1.568103863024e-01 8.274247501515e-01 -1.568103863024e-01
1.912925000000e-01 8.273859529008e-01 -1.569090327920e-01 1.726140470992e-01 1.569090327920e-01 1.726140470992e-01 1.569090327920e-01 8.273859529008e-01 -1.569090327920e-01
1.913662500000e-01 8.273471394994e-01 -1.570076487361e-01 1.726528605006e-01 1.570076487361e-01 1.726528605006e-01 1.570076487361e-01 8.273471394994e-01 -1.570076487361e-01
1.914400000000e-01 8.273083099581e-01 -1.571062341532e-01 1.726916900419e-01 1.571062341532e-01 1.726916900419e-01 1.571062341532e-01 8.273083099581e-01 -1.571062341532e-01
1.915137500000e-01 8.272694642874e-01 -1.572047890619e-01 1.727305357126e-01 1.572047890619e-01 1.727305357126e-01 1.572047890619e-01 8.272694642874e-01 -1.572047890619e-01
1.915875000000e-01 8.272306024979e-01 -1.573033134807e-01 1.727693975021e-01 1.573033134807e-01 1.727693975021e-01 1.573033134807e-01 8.272306024979e-01 -1.573033134807e-01
1.916612500000e-01 8.271917246003e-01 -1.574018074279e-01 1.728082753997e-01 1.574018074279e-01 1.728082753997e-01 1.574018074279e-01 8.271917246003e-01 -1.574018074279e-01
1.917350000000e-01 8.271528306052e-01 -1.575002709222e-01 1.728471693948e-01 1.575002709222e-01 1.728471693948e-01 1.575002709222e-01 8.271528306052e-01 -1.575002709222e-01
1.918087500000e-01 8.271139205231e-01 -1.575987039818e-01 1.728860794769e-01 1.575987039818e-01 1.728860794769e-01 1.575987039818e-01 8.271139205231e-01 -1.575987039818e-01
1.918825000000e-01 8.270749943645e-01 -1.576971066251e-01 1.729250056355e-01 1.576971066251e-01 1.729250056355e-01 1.576971066251e-01 8.270749943645e-01 -1.576971066251e-01
1.919562500000e-01 8.270360521402e-01 -1.577954788706e-01 1.729639478598e-01 1.577954788706e-01 1.729639478598e-01 1.577954788706e-01 8.270360521402e-01 -1.577954788706e-01
1.920300000000e-01 8.269970938605e-01 -1.578938207364e-01 1.730029061395e-01 1.578938207364e-01 1.730029061395e-01 1.578938207364e-01 8.269970938605e-01 -1.578938207364e-01
1.921037500000e-01 8.269581195360e-01 -1.579921322409e-01 1.730418804640e-01 1.579921322409e-01 1.730418804640e-01 1.579921322409e-01 8.269581195360e-01 -1.579921322409e-01
1.921775000000e-01 8.269191291773e-01 -1.580904134024e-01 1.730808708227e-01 1.580904134024e-01 1.730808708227e-01 1.580904134024e-01 8.269191291773e-01 -1.580904134024e-01
1.922512500000e-01 8.268801227949e-01 -1.581886642390e-01 1.731198772051e-01 1.581886642390e-01 1.731198772051e-01 1.581886642390e-01 8.268801227949e-01 -1.581886642390e-01
1.923250000000e-01 8.268411003993e-01 -1.582868847690e-01 1.731588996007e-01 1.582868847690e-01 1.731588996007e-01 1.582868847690e-01 8.268411003993e-01 -1.582868847690e-01
1.923987500000e-01 8.268020620009e-01 -1.583850750106e-01 1.731979379991e-01 1.583850750106e-01 1.731979379991e-01 1.583850750106e-01 8.268020620009e-01 -1.583850750106e-01
1.924725000000e-01 8.267630076103e-01 -1.584832349818e-01 1.732369923897e-01 1.584832349818e-01 1.732369923897e-01 1.584832349818e-01 8.267630076103e-01 -1.584832349818e-01
1.925462500000e-01 8.267239372379e-01 -1.585813647008e-01 1.732760627621e-01 1.585813647008e-01 1.732760627621e-01 1.585813647008e-01 8.267239372379e-01 -1.585813647008e-01
1.926200000000e-01 8.266848508941e-01 -1.586794641857e-01 1.733151491059e-01 1.586794641857e-01 1.733151491059e-01 1.586794641857e-01 8.266848508941e-01 -1.586794641857e-01
1.926937500000e-01 8.266457485895e-01 -1.587775334546e-01 1.733542514105e-01 1.587775334546e-01 1.733542514105e-01 1.587775334546e-01 8.266457485895e-01 -1.587775334546e-01
1.927675000000e-01 8.266066303344e-01 -1.588755725254e-01 1.733933696656e-01 1.588755725254e-01 1.733933696656e-01 1.588755725254e-01 8.266066303344e-01 -1.588755725254e-01
1.928412500000e-01 8.265674961393e-01 -1.589735814162e-01 1.734325038607e-01 1.589735814162e-01 1.734325038607e-01 1.589735814162e-01 8.265674961393e-01 -1.589735814162e-01
1.929150000000e-01 8.265283460145e-01 -1.590715601449e-01 1.734716539855e-01 1.590715601449e-01 1.734716539855e-01 1.590715601449e-01 8.265283460145e-01 -1.590715601449e-01
1.929887500000e-01 8.264891799706e-01 -1.591695087295e-01 1.735108200294e-01 1.591695087295e-01 1.735108200294e-01 1.591695087295e-01 8.264891799706e-01 -1.591695087295e-01
1.930625000000e-01 8.264499980178e-01 -1.592674271878e-01 1.735500019822e-01 1.592674271878e-01 1.735500019822e-01 1.592674271878e-01 8.264499980178e-01 -1.592674271878e-01
1.931362500000e-01 8.264108001666e-01 -1.593653155379e-01 1.735891998334e-01 1.593653155379e-01 1.735891998334e-01 1.593653155379e-01 8.264108001666e-01 -1.593653155379e-01
1.932100000000e-01 8.263715864274e-01 -1.594631737974e-01 1.736284135726e-01 1.594631737974e-01 1.736284135726e-01 1.594631737974e-01 8.263715864274e-01 -1.594631737974e-01
1.932837500000e-01 8.263323568104e-01 -1.595610019843e-01 1.736676431896e-01 1.595610019843e-01 1.736676431896e-01 1.595610019843e-01 8.263323568104e-01 -1.595610019843e-01
1.933575000000e-01 8.262931113260e-01 -1.596588001163e-01 1.737068886740e-01 1.596588001163e-01 1.737068886740e-01 1.596588001163e-01 8.262931113260e-01 -1.596588001163e-01
1.934312500000e-01 8.262538499847e-01 -1.597565682113e-01 1.737461500153e-01 1.597565682113e-01 1.737461500153e-01 1.597565682113e-01 8.262538499847e-01 -1.597565682113e-01
1.935050000000e-01 8.262145727966e-01 -1.598543062869e-01 1.737854272034e-01 1.598543062869e-01 1.737854272034e-01 1.598543062869e-01 8.262145727966e-01 -1.598543062869e-01
1.935787500000e-01 8.261752797721e-01 -1.599520143609e-01 1.738247202279e-01 1.599520143609e-01 1.738247202279e-01 1.599520143609e-01 8.261752797721e-01 -1.599520143609e-01
1.936525000000e-01 8.261359709216e-01 -1.600496924510e-01 1.738640290784e-01 1.600496924510e-01 1.738640290784e-01 1.600496924510e-01 8.261359709216e-01 -1.600496924510e-01
1.937262500000e-01 8.260966462553e-01 -1.601473405748e-01 1.739033537447e-01 1.601473405748e-01 1.739033537447e-01 1.601473405748e-01 8.260966462553e-01 -1.601473405748e-01
1.938000000000e-01 8.260573057834e-01 -1.602449587499e-01 1.739426942166e-01 1.602449587499e-01 1.739426942166e-01 1.602449587499e-01 8.260573057834e-01 -1.602449587499e-01
1.938737500000e-01 8.260179495164e-01 -1.603425469940e-01 1.739820504836e-01 1.603425469940e-01 1.739820504836e-01 1.603425469940e-01 8.260179495164e-01 -1.603425469940e-01
1.939475000000e-01 8.259785774643e-01 -1.604401053246e-01 1.740214225357e-01 1.604401053246e-01 1.740214225357e-01 1.604401053246e-01 8.259785774643e-01 -1.604401053246e-01
1.940212500000e-01 8.259391896376e-01 -1.605376337592e-01 1.740608103624e-01 1.605376337592e-01 1.740608103624e-01 1.605376337592e-01 8.259391896376e-01 -1.605376337592e-01
1.940950000000e-01 8.258997860464e-01 -1.606351323155e-01 1.741002139536e-01 1.606351323155e-01 1.741002139536e-01 1.606351323155e-01 8.258997860464e-01 -1.606351323155e-01
1.941687500000e-01 8.258603667009e-01 -1.607326010108e-01 1.741396332991e-01 1.607326010108e-01 1.741396332991e-01 1.607326010108e-01 8.258603667009e-01 -1.607326010108e-01
1.942425000000e-01 8.258209316114e-01 -1.608300398627e-01 1.741790683886e-01 1.608300398627e-01 1.741790683886e-01 1.608300398627e-01 8.258209316114e-01 -1.608300398627e-01
1.943162500000e-01 8.257814807881e-01 -1.609274488886e-01 1.742185192119e-01 1.609274488886e-01 1.742185192119e-01 1.609274488886e-01 8.257814807881e-01 -1.609274488886e-01
1.943900000000e-01 8.257420142411e-01 -1.610248281059e-01 1.742579857589e-01 1.610248281059e-01 1.742579857589e-01 1.610248281059e-01 8.257420142411e-01 -1.610248281059e-01
1.944637500000e-01 8.257025319808e-01 -1.611221775319e-01 1.742974680192e-01 1.611221775319e-01 1.742974680192e-01 1.611221775319e-01 8.257025319808e-01 -1.611221775319e-01
1.945375000000e-01 8.256630340172e-01 -1.612194971841e-01 1.743369659828e-01 1.612194971841e-01 1.743369659828e-01 1.612194971841e-01 8.256630340172e-01 -1.612194971841e-01
1.946112500000e-01 8.256235203604e-01 -1.613167870797e-01 1.743764796396e-01 1.613167870797e-01 1.743764796396e-01 1.613167870797e-01 8.256235203604e-01 -1.613167870797e-01
1.946850000000e-01 8.255839910208e-01 -1.614140472361e-01 1.744160089792e-01 1.614140472361e-01 1.744160089792e-01 1.614140472361e-01 8.255839910208e-01 -1.614140472361e-01
1.947587500000e-01 8.255444460084e-01 -1.615112776705e-01 1.744555539916e-01 1.615112776705e-01 1.744555539916e-01 1.615112776705e-01 8.255444460084e-01 -1.615112776705e-01
1.948325000000e-01 8.255048853333e-01 -1.616084784001e-01 1.744951146667e-01 1.616084784001e-01 1.744951146667e-01 1.616084784001e-01 8.255048853333e-01 -1.616084784001e-01
1.949062500000e-01 8.254653090057e-01 -1.617056494423e-01 1.745346909943e-01 1.617056494423e-01 1.745346909943e-01 1.617056494423e-01 8.254653090057e-01 -1.617056494423e-01
1.949800000000e-01 8.254257170357e-01 -1.618027908141e-01 1.745742829643e-01 1.618027908141e-01 1.745742829643e-01 1.618027908141e-01 8.254257170357e-01 -1.618027908141e-01
1.950537500000e-01 8.253861094335e-01 -1.618999025328e-01 1.746138905665e-01 1.618999025328e-01 1.746138905665e-01 1.618999025328e-01 8.253861094335e-01 -1.618999025328e-01
1.951275000000e-01 8.253464862090e-01 -1.619969846154e-01 1.746535137910e-01 1.619969846154e-01 1.746535137910e-01 1.619969846154e-01 8.253464862090e-01 -1.619969846154e-01
1.952012500000e-01 8.253068473723e-01 -1.620940370791e-01 1.746931526277e-01 1.620940370791e-01 1.746931526277e-01 1.620940370791e-01 8.253068473723e-01 -1.620940370791e-01
1.952750000000e-01 8.252671929337e-01 -1.621910599410e-01 1.747328070663e-01 1.621910599410e-01 1.747328070663e-01 1.621910599410e-01 8.252671929337e-01 -1.621910599410e-01
1.953487500000e-01 8.252275229030e-01 -1.622880532182e-01 1.747724770970e-01 1.622880532182e-01 1.747724770970e-01 1.622880532182e-01 8.252275229030e-01 -1.622880532182e-01
1.954225000000e-01 8.251878372905e-01 -1.623850169275e-01 1.748121627095e-01 1.623850169275e-01 1.748121627095e-01 1.623850169275e-01 8.251878372905e-01 -1.623850169275e-01
1.954962500000e-01 8.251481361060e-01 -1.624819510862e-01 1.748518638940e-01 1.624819510862e-01 1.748518638940e-01 1.624819510862e-01 8.251481361060e-01 -1.624819510862e-01
1.955700000000e-01 8.251084193597e-01 -1.625788557110e-01 1.748915806403e-01 1.625788557110e-01 1.748915806403e-01 1.625788557110e-01 8.251084193597e-01 -1.625788557110e-01
1.956437500000e-01 8.250686870616e-01 -1.626757308191e-01 1.749313129384e-01 1.626757308191e-01 1.749313129384e-01 1.626757308191e-01 8.250686870616e-01 -1.626757308191e-01
1.957175000000e-01 8.250289392217e-01 -1.627725764273e-01 1.749710607783e-01 1.627725764273e-01 1.749710607783e-01 1.627725764273e-01 8.250289392217e-01 -1.627725764273e-01
1.957912500000e-01 8.249891758499e-01 -1.628693925524e-01 1.750108241501e-01 1.628693925524e-01 1.750108241501e-01 1.628693925524e-01 8.249891758499e-01 -1.628693925524e-01
1.958650000000e-01 8.249493969564e-01 -1.629661792114e-01 1.750506030436e-01 1.629661792114e-01 1.750506030436e-01 1.629661792114e-01 8.249493969564e-01 -1.629661792114e-01
1.959387500000e-01 8.249096025510e-01 -1.630629364212e-01 1.750903974490e-01 1.630629364212e-01 1.750903974490e-01 1.630629364212e-01 8.249096025510e-01 -1.630629364212e-01
1.960125000000e-01 8.248697926438e-01 -1.631596641985e-01 1.751302073562e-01 1.631596641985e-01 1.751302073562e-01 1.631596641985e-01 8.248697926438e-01 -1.631596641985e-01
1.960862500000e-01 8.248299672446e-01 -1.632563625601e-01 1.751700327554e-01 1.632563625601e-01 1.751700327554e-01 1.632563625601e-01 8.248299672446e-01 -1.632563625601e-01
1.961600000000e-01 8.247901263636e-01 -1.633530315227e-01 1.752098736364e-01 1.633530315227e-01 1.752098736364e-01 1.633530315227e-01 8.247901263636e-01 -1.633530315227e-01
1.962337500000e-01 8.247502700105e-01 -1.634496711032e-01 1.752497299895e-01 1.634496711032e-01 1.752497299895e-01 1.634496711032e-01 8.247502700105e-01 -1.634496711032e-01
1.963075000000e-01 8.247103981954e-01 -1.635462813183e-01 1.752896018046e-01 1.635462813183e-01 1.752896018046e-01 1.635462813183e-01 8.247103981954e-01 -1.635462813183e-01
1.963812500000e-01 8.246705109281e-01 -1.636428621846e-01 1.753294890719e-01 1.636428621846e-01 1.753294890719e-01 1.636428621846e-01 8.246705109281e-01 -1.636428621846e-01
1.964550000000e-01 8.246306082186e-01 -1.637394137187e-01 1.753693917814e-01 1.637394137187e-01 1.753693917814e-01 1.637394137187e-01 8.246306082186e-01 -1.637394137187e-01
1.965287500000e-01 8.245906900768e-01 -1.638359359374e-01 1.754093099232e-01 1.638359359374e-01 1.754093099232e-01 1.638359359374e-01 8.245906900768e-01 -1.638359359374e-01
1.966025000000e-01 8.245507565126e-01 -1.639324288572e-01 1.754492434874e-01 1.639324288572e-01 1.754492434874e-01 1.639324288572e-01 8.245507565126e-01 -1.639324288572e-01
1.966762500000e-01 8.245108075358e-01 -1.640288924947e-01 1.754891924642e-01 1.640288924947e-01 1.754891924642e-01 1.640288924947e-01 8.245108075358e-01 -1.640288924947e-01
1.967500000000e-01 8.244708431564e-01 -1.641253268664e-01 1.755291568436e-01 1.641253268664e-01 1.755291568436e-01 1.641253268664e-01 8.244708431564e-01 -1.641253268664e-01
1.968237500000e-01 8.244308633842e-01 -1.642217319890e-01 1.755691366158e-01 1.642217319890e-01 1.755691366158e-01 1.642217319890e-01 8.244308633842e-01 -1.642217319890e-01
1.968975000000e-01 8.243908682290e-01 -1.643181078789e-01 1.756091317710e-01 1.643181078789e-01 1.756091317710e-01 1.643181078789e-01 8.243908682290e-01 -1.643181078789e-01
1.969712500000e-01 8.243508577008e-01 -1.644144545525e-01 1.756491422992e-01 1.644144545525e-01 1.756491422992e-01 1.644144545525e-01 8.243508577008e-01 -1.644144545525e-01
1.970450000000e-01 8.243108318093e-01 -1.645107720264e-01 1.756891681907e-01 1.645107720264e-01 1.756891681907e-01 1.645107720264e-01 8.243108318093e-01 -1.645107720264e-01
1.971187500000e-01 8.242707905643e-01 -1.646070603169e-01 1.757292094357e-01 1.646070603169e-01 1.757292094357e-01 1.646070603169e-01 8.242707905643e-01 -1.646070603169e-01
1.971925000000e-01 8.242307339757e-01 -1.647033194405e-01 1.757692660243e-01 1.647033194405e-01 1.757692660243e-01 1.647033194405e-01 8.242307339757e-01 -1.647033194405e-01
1.972662500000e-01 8.241906620534e-01 -1.647995494136e-01 1.758093379466e-01 1.647995494136e-01 1.758093379466e-01 1.647995494136e-01 8.241906620534e-01 -1.647995494136e-01
1.973400000000e-01 8.241505748070e-01 -1.648957502524e-01 1.758494251930e-01 1.648957502524e-01 1.758494251930e-01 1.648957502524e-01 8.241505748070e-01 -1.648957502524e-01
1.974137500000e-01 8.241104722464e-01 -1.649919219734e-01 1.758895277536e-01 1.649919219734e-01 1.758895277536e-01 1.649919219734e-01 8.241104722464e-01 -1.649919219734e-01
1.974875000000e-01 8.240703543813e-01 -1.650880645927e-01 1.759296456187e-01 1.650880645927e-01 1.759296456187e-01 1.650880645927e-01 8.240703543813e-01 -1.650880645927e-01
1.975612500000e-01 8.240302212216e-01 -1.651841781268e-01 1.759697787784e-01 1.651841781268e-01 1.759697787784e-01 1.651841781268e-01 8.240302212216e-01 -1.651841781268e-01
1.976350000000e-01 8.239900727770e-01 -1.652802625918e-01 1.760099272230e-01 1.652802625918e-01 1.760099272230e-01 1.652802625918e-01 8.239900727770e-01 -1.652802625918e-01
1.977087500000e-01 8.239499090571e-01 -1.653763180040e-01 1.760500909429e-01 1.653763180040e-01 1.760500909429e-01 1.653763180040e-01 8.239499090571e-01 -1.653763180040e-01
1.977825000000e-01 8.239097300719e-01 -1.654723443796e-01 1.760902699281e-01 1.654723443796e-01 1.760902699281e-01 1.654723443796e-01 8.239097300719e-01 -1.654723443796e-01
1.978562500000e-01 8.238695358310e-01 -1.655683417347e-01 1.761304641690e-01 1.655683417347e-01 1.761304641690e-01 1.655683417347e-01 8.238695358310e-01 -1.655683417347e-01
1.979300000000e-01 8.238293263441e-01 -1.656643100854e-01 1.761706736559e-01 1.656643100854e-01 1.761706736559e-01 1.656643100854e-01 8.238293263441e-01 -1.656643100854e-01
1.980037500000e-01 8.237891016209e-01 -1.657602494481e-01 1.762108983791e-01 1.657602494481e-01 1.762108983791e-01 1.657602494481e-01 8.237891016209e-01 -1.657602494481e-01
1.980775000000e-01 8.237488616712e-01 -1.658561598386e-01 1.762511383288e-01 1.658561598386e-01 1.762511383288e-01 1.658561598386e-01 8.237488616712e-01 -1.658561598386e-01
1.981512500000e-01 8.237086065047e-01 -1.659520412731e-01 1.762913934953e-01 1.659520412731e-01 1.762913934953e-01 1.659520412731e-01 8.237086065047e-01 -1.659520412731e-01
1.982250000000e-01 8.236683361309e-01 -1.660478937677e-01 1.763316638691e-01 1.660478937677e-01 1.763316638691e-01 1.660478937677e-01 8.236683361309e-01 -1.660478937677e-01
1.982987500000e-01 8.236280505597e-01 -1.661437173384e-01 1.763719494403e-01 1.661437173384e-01 1.763719494403e-01 1.661437173384e-01 8.236280505597e-01 -1.661437173384e-01
1.983725000000e-01 8.235877498006e-01 -1.662395120011e-01 1.764122501994e-01 1.662395120011e-01 1.764122501994e-01 1.662395120011e-01 8.235877498006e-01 -1.662395120011e-01
1.984462500000e-01 8.235474338633e-01 -1.663352777719e-01 1.764525661367e-01 1.663352777719e-01 1.764525661367e-01 1.663352777719e-01 8.235474338633e-01 -1.663352777719e-01
1.985200000000e-01 8.235071027575e-01 -1.664310146666e-01 1.764928972425e-01 1.664310146666e-01 1.764928972425e-01 1.664310146666e-01 8.235071027575e-01 -1.664310146666e-01
1.985937500000e-01 8.234667564928e-01 -1.665267227013e-01 1.765332435072e-01 1.665267227013e-01 1.765332435072e-01 1.665267227013e-01 8.234667564928e-01 -1.665267227013e-01
1.986675000000e-01 8.234263950788e-01 -1.666224018918e-01 1.765736049212e-01 1.666224018918e-01 1.765736049212e-01 1.666224018918e-01 8.234263950788e-01 -1.666224018918e-01
1.987412500000e-01 8.233860185252e-01 -1.667180522541e-01 1.766139814748e-01 1.667180522541e-01 1.766139814748e-01 1.667180522541e-01 8.233860185252e-01 -1.667180522541e-01
1.988150000000e-01 8.233456268415e-01 -1.668136738039e-01 1.766543731585e-01 1.668136738039e-01 1.766543731585e-01 1.668136738039e-01 8.233456268415e-01 -1.668136738039e-01
1.988887500000e-01 8.233052200375e-01 -1.669092665571e-01 1.766947799625e-01 1.669092665571e-01 1.766947799625e-01 1.669092665571e-01 8.233052200375e-01 -1.669092665571e-01
1.989625000000e-01 8.232647981225e-01 -1.670048305294e-01 1.767352018775e-01 1.670048305294e-01 1.767352018775e-01 1.670048305294e-01 8.232647981225e-01 -1.670048305294e-01
1.990362500000e-01 8.232243611063e-01 -1.671003657368e-01 1.767756388937e-01 1.671003657368e-01 1.767756388937e-01 1.671003657368e-01 8.232243611063e-01 -1.671003657368e-01
1.991100000000e-01 8.231839089984e-01 -1.671958721948e-01 1.768160910016e-01 1.671958721948e-01 1.768160910016e-01 1.671958721948e-01 8.231839089984e-01 -1.671958721948e-01
1.991837500000e-01 8.231434418084e-01 -1.672913499194e-01 1.768565581916e-01 1.672913499194e-01 1.768565581916e-01 1.672913499194e-01 8.231434418084e-01 -1.672913499194e-01
1.992575000000e-01 8.231029595459e-01 -1.673867989261e-01 1.768970404541e-01 1.673867989261e-01 1.768970404541e-01 1.673867989261e-01 8.231029595459e-01 -1.673867989261e-01
1.993312500000e-01 8.230624622203e-01 -1.674822192306e-01 1.769375377797e-01 1.674822192306e-01 1.769375377797e-01 1.674822192306e-01 8.230624622203e-01 -1.674822192306e-01
1.994050000000e-01 8.230219498412e-01 -1.675776108487e-01 1.769780501588e-01 1.675776108487e-01 1.769780501588e-01 1.675776108487e-01 8.230219498412e-01 -1.675776108487e-01
1.994787500000e-01 8.229814224182e-01 -1.676729737959e-01 1.770185775818e-01 1.676729737959e-01 1.770185775818e-01 1.676729737959e-01 8.229814224182e-01 -1.676729737959e-01
1.995525000000e-01 8.229408799607e-01 -1.677683080879e-01 1.770591200393e-01 1.677683080879e-01 1.770591200393e-01 1.677683080879e-01 8.229408799607e-01 -1.677683080879e-01
1.996262500000e-01 8.229003224783e-01 -1.678636137402e-01 1.770996775217e-01 1.678636137402e-01 1.770996775217e-01 1.678636137402e-01 8.229003224783e-01 -1.678636137402e-01
1.997000000000e-01 8.228597499805e-01 -1.679588907684e-01 1.771402500195e-01 1.679588907684e-01 1.771402500195e-01 1.679588907684e-01 8.228597499805e-01 -1.679588907684e-01
1.997737500000e-01 8.228191624768e-01 -1.680541391881e-01 1.771808375232e-01 1.680541391881e-01 1.771808375232e-01 1.680541391881e-01 8.228191624768e-01 -1.680541391881e-01
1.998475000000e-01 8.227785599766e-01 -1.681493590147e-01 1.772214400234e-01 1.681493590147e-01 1.772214400234e-01 1.681493590147e-01 8.227785599766e-01 -1.681493590147e-01
1.999212500000e-01 8.227379424895e-01 -1.682445502638e-01 1.772620575105e-01 1.682445502638e-01 1.772620575105e-01 1.682445502638e-01 8.227379424895e-01 -1.682445502638e-01
1.999950000000e-01 8.226973100248e-01 -1.683397129508e-01 1.773026899752e-01 1.683397129508e-01 1.773026899752e-01 1.683397129508e-01 8.226973100248e-01 -1.683397129508e-01
2.000687500000e-01 8.226566625921e-01 -1.684348470911e-01 1.773433374079e-01 1.684348470911e-01 1.773433374079e-01 1.684348470911e-01 8.226566625921e-01 -1.684348470911e-01
2.001425000000e-01 8.226160002008e-01 -1.685299527003e-01 1.773839997992e-01 1.685299527003e-01 1.773839997992e-01 1.685299527003e-01 8.226160002008e-01 -1.685299527003e-01
2.002162500000e-01 8.225753228604e-01 -1.686250297936e-01 1.774246771396e-01 1.686250297936e-01 1.774246771396e-01 1.686250297936e-01 8.225753228604e-01 -1.686250297936e-01
2.002900000000e-01 8.225346305802e-01 -1.687200783865e-01 1.774653694198e-01 1.687200783865e-01 1.774653694198e-01 1.687200783865e-01 8.225346305802e-01 -1.687200783865e-01
2.003637500000e-01 8.224939233697e-01 -1.688150984944e-01 1.775060766303e-01 1.688150984944e-01 1.775060766303e-01 1.688150984944e-01 8.224939233697e-01 -1.688150984944e-01
2.004375000000e-01 8.224532012383e-01 -1.689100901324e-01 1.775467987617e-01 1.689100901324e-01 1.775467987617e-01 1.689100901324e-01 8.224532012383e-01 -1.689100901324e-01
2.005112500000e-01 8.224124641955e-01 -1.690050533160e-01 1.775875358045e-01 1.690050533160e-01 1.775875358045e-01 1.690050533160e-01 8.224124641955e-01 -1.690050533160e-01
2.005850000000e-01 8.223717122505e-01 -1.690999880604e-01 1.776282877495e-01 1.690999880604e-01 1.776282877495e-01 1.690999880604e-01 8.223717122505e-01 -1.690999880604e-01
2.006587500000e-01 8.223309454129e-01 -1.691948943809e-01 1.776690545871e-01 1.691948943809e-01 1.776690545871e-01 1.691948943809e-01 8.223309454129e-01 -1.691948943809e-01
2.007325000000e-01 8.222901636919e-01 -1.692897722927e-01 1.777098363081e-01 1.692897722927e-01 1.777098363081e-01 1.692897722927e-01 8.222901636919e-01 -1.692897722927e-01
2.008062500000e-01 8.222493670969e-01 -1.693846218110e-01 1.777506329031e-01 1.693846218110e-01 1.777506329031e-01 1.693846218110e-01 8.222493670969e-01 -1.693846218110e-01
2.008800000000e-01 8.222085556374e-01 -1.694794429510e-01 1.777914443626e-01 1.694794429510e-01 1.777914443626e-01 1.694794429510e-01 8.222085556374e-01 -1.694794429510e-01
2.009537500000e-01 8.221677293226e-01 -1.695742357279e-01 1.778322706774e-01 1.695742357279e-01 1.778322706774e-01 1.695742357279e-01 8.221677293226e-01 -1.695742357279e-01
2.010275000000e-01 8.221268881620e-01 -1.696690001568e-01 1.778731118380e-01 1.696690001568e-01 1.778731118380e-01 1.696690001568e-01 8.221268881620e-01 -1.696690001568e-01
2.011012500000e-01 8.220860321648e-01 -1.697637362529e-01 1.779139678352e-01 1.697637362529e-01 1.779139678352e-01 1.697637362529e-01 8.220860321648e-01 -1.697637362529e-01
2.011750000000e-01 8.220451613403e-01 -1.698584440312e-01 1.779548386597e-01 1.698584440312e-01 1.779548386597e-01 1.698584440312e-01 8.220451613403e-01 -1.698584440312e-01
2.012487500000e-01 8.220042756979e-01 -1.699531235067e-01 1.779957243021e-01 1.699531235067e-01 1.779957243021e-01 1.699531235067e-01 8.220042756979e-01 -1.699531235067e-01
2.013225000000e-01 8.219633752470e-01 -1.700477746946e-01 1.780366247530e-01 1.700477746946e-01 1.780366247530e-01 1.700477746946e-01 8.219633752470e-01 -1.700477746946e-01
2.013962500000e-01 8.219224599967e-01 -1.701423976099e-01 1.780775400033e-01 1.701423976099e-01 1.780775400033e-01 1.701423976099e-01 8.219224599967e-01 -1.701423976099e-01
2.014700000000e-01 8.218815299564e-01 -1.702369922676e-01 1.781184700436e-01 1.702369922676e-01 1.781184700436e-01 1.702369922676e-01 8.218815299564e-01 -1.702369922676e-01
2.015437500000e-01 8.218405851354e-01 -1.703315586826e-01 1.781594148646e-01 1.703315586826e-01 1.781594148646e-01 1.703315586826e-01 8.218405851354e-01 -1.703315586826e-01
2.016175000000e-01 8.217996255429e-01 -1.704260968699e-01 1.782003744571e-01 1.704260968699e-01 1.782003744571e-01 1.704260968699e-01 8.217996255429e-01 -1.704260968699e-01
2.016912500000e-01 8.217586511882e-01 -1.705206068445e-01 1.782413488118e-01 1.705206068445e-01 1.782413488118e-01 1.705206068445e-01 8.217586511882e-01 -1.705206068445e-01
2.017650000000e-01 8.217176620807e-01 -1.706150886213e-01 1.782823379193e-01 1.706150886213e-01 1.782823379193e-01 1.706150886213e-01 8.217176620807e-01 -1.706150886213e-01
2.018387500000e-01 8.216766582294e-01 -1.707095422151e-01 1.783233417706e-01 1.707095422151e-01 1.783233417706e-01 1.707095422151e-01 8.216766582294e-01 -1.707095422151e-01
2.019125000000e-01 8.216356396438e-01 -1.708039676408e-01 1.783643603562e-01 1.708039676408e-01 1.783643603562e-01 1.708039676408e-01 8.216356396438e-01 -1.708039676408e-01
2.019862500000e-01 8.215946063329e-01 -1.708983649133e-01 1.784053936671e-01 1.708983649133e-01 1.784053936671e-01 1.708983649133e-01 8.215946063329e-01 -1.708983649133e-01
2.020600000000e-01 8.215535583061e-01 -1.709927340474e-01 1.784464416939e-01 1.709927340474e-01 1.784464416939e-01 1.709927340474e-01 8.215535583061e-01 -1.709927340474e-01
2.021337500000e-01 8.215124955725e-01 -1.710870750578e-01 1.784875044275e-01 1.710870750578e-01 1.784875044275e-01 1.710870750578e-01 8.215124955725e-01 -1.710870750578e-01
2.022075000000e-01 8.214714181413e-01 -1.711813879594e-01 1.785285818587e-01 1.711813879594e-01 1.785285818587e-01 1.711813879594e-01 8.214714181413e-01 -1.711813879594e-01
2.022812500000e-01 8.214303260219e-01 -1.712756727670e-01 1.785696739781e-01 1.712756727670e-01 1.785696739781e-01 1.712756727670e-01 8.214303260219e-01 -1.712756727670e-01
2.023550000000e-01 8.213892192232e-01 -1.713699294952e-01 1.786107807768e-01 1.713699294952e-01 1.786107807768e-01 1.713699294952e-01 8.213892192232e-01 -1.713699294952e-01
2.024287500000e-01 8.213480977546e-01 -1.714641581588e-01 1.786519022454e-01 1.714641581588e-01 1.786519022454e-01 1.714641581588e-01 8.213480977546e-01 -1.714641581588e-01
2.025025000000e-01 8.213069616253e-01 -1.715583587724e-01 1.786930383747e-01 1.715583587724e-01 1.786930383747e-01 1.715583587724e-01 8.213069616253e-01 -1.715583587724e-01
2.025762500000e-01 8.212658108443e-01 -1.716525313507e-01 1.787341891557e-01 1.716525313507e-01 1.787341891557e-01 1.716525313507e-01 8.212658108443e-01 -1.716525313507e-01
2.026500000000e-01 8.212246454208e-01 -1.717466759084e-01 1.787753545792e-01 1.717466759084e-01 1.787753545792e-01 1.717466759084e-01 8.212246454208e-01 -1.717466759084e-01
2.027237500000e-01 8.211834653640e-01 -1.718407924601e-01 1.788165346360e-01 1.718407924601e-01 1.788165346360e-01 1.718407924601e-01 8.211834653640e-01 -1.718407924601e-01
2.027975000000e-01 8.211422706831e-01 -1.719348810204e-01 1.788577293169e-01 1.719348810204e-01 1.788577293169e-01 1.719348810204e-01 8.211422706831e-01 -1.719348810204e-01
2.028712500000e-01 8.211010613871e-01 -1.720289416038e-01 1.788989386129e-01 1.720289416038e-01 1.788989386129e-01 1.720289416038e-01 8.211010613871e-01 -1.720289416038e-01
2.029450000000e-01 8.210598374853e-01 -1.721229742249e-01 1.789401625147e-01 1.721229742249e-01 1.789401625147e-01 1.721229742249e-01 8.210598374853e-01 -1.721229742249e-01
2.030187500000e-01 8.210185989866e-01 -1.722169788983e-01 1.789814010134e-01 1.722169788983e-01 1.789814010134e-01 1.722169788983e-01 8.210185989866e-01 -1.722169788983e-01
2.030925000000e-01 8.209773459003e-01 -1.723109556385e-01 1.790226540997e-01 1.723109556385e-01 1.790226540997e-01 1.723109556385e-01 8.209773459003e-01 -1.723109556385e-01
2.031662500000e-01 8.209360782354e-01 -1.724049044599e-01 1.790639217646e-01 1.724049044599e-01 1.790639217646e-01 1.724049044599e-01 8.209360782354e-01 -1.724049044599e-01
2.032400000000e-01 8.208947960010e-01 -1.724988253771e-01 1.791052039990e-01 1.724988253771e-01 1.791052039990e-01 1.724988253771e-01 8.208947960010e-01 -1.724988253771e-01
2.033137500000e-01 8.208534992062e-01 -1.725927184044e-01 1.791465007938e-01 1.725927184044e-01 1.791465007938e-01 1.725927184044e-01 8.208534992062e-01 -1.725927184044e-01
2.033875000000e-01 8.208121878602e-01 -1.726865835563e-01 1.791878121398e-01 1.726865835563e-01 1.791878121398e-01 1.726865835563e-01 8.208121878602e-01 -1.726865835563e-01
2.034612500000e-01 8.207708619718e-01 -1.727804208472e-01 1.792291380282e-01 1.727804208472e-01 1.792291380282e-01 1.727804208472e-01 8.207708619718e-01 -1.727804208472e-01
2.035350000000e-01 8.207295215503e-01 -1.728742302916e-01 1.792704784497e-01 1.728742302916e-01 1.792704784497e-01 1.728742302916e-01 8.207295215503e-01 -1.728742302916e-01
2.036087500000e-01 8.206881666047e-01 -1.729680119036e-01 1.793118333953e-01 1.729680119036e-01 1.793118333953e-01 1.729680119036e-01 8.206881666047e-01 -1.729680119036e-01
2.036825000000e-01 8.206467971440e-01 -1.730617656977e-01 1.793532028560e-01 1.730617656977e-01 1.793532028560e-01 1.730617656977e-01 8.206467971440e-01 -1.730617656977e-01
2.037562500000e-01 8.206054131773e-01 -1.731554916882e-01 1.793945868227e-01 1.731554916882e-01 1.793945868227e-01 1.731554916882e-01 8.206054131773e-01 -1.731554916882e-01
2.038300000000e-01 8.205640147136e-01 -1.732491898895e-01 1.794359852864e-01 1.732491898895e-01 1.794359852864e-01 1.732491898895e-01 8.205640147136e-01 -1.732491898895e-01
2.039037500000e-01 8.205226017618e-01 -1.733428603157e-01 1.794773982382e-01 1.733428603157e-01 1.794773982382e-01 1.733428603157e-01 8.205226017618e-01 -1.733428603157e-01
2.039775000000e-01 8.204811743312e-01 -1.734365029811e-01 1.795188256688e-01 1.734365029811e-01 1.795188256688e-01 1.734365029811e-01 8.204811743312e-01 -1.734365029811e-01
2.040512500000e-01 8.204397324305e-01 -1.735301178999e-01 1.795602675695e-01 1.735301178999e-01 1.795602675695e-01 1.735301178999e-01 8.204397324305e-01 -1.735301178999e-01
2.041250000000e-01 8.203982760689e-01 -1.736237050865e-01 1.796017239311e-01 1.736237050865e-01 1.796017239311e-01 1.736237050865e-01 8.203982760689e-01 -1.736237050865e-01
2.041987500000e-01 8.203568052553e-01 -1.737172645549e-01 1.796431947447e-01 1.737172645549e-01 1.796431947447e-01 1.737172645549e-01 8.203568052553e-01 -1.737172645549e-01
2.042725000000e-01 8.203153199987e-01 -1.738107963193e-01 1.796846800013e-01 1.738107963193e-01 1.796846800013e-01 1.738107963193e-01 8.203153199987e-01 -1.738107963193e-01
2.043462500000e-01 8.202738203082e-01 -1.739043003938e-01 1.797261796918e-01 1.739043003938e-01 1.797261796918e-01 1.739043003938e-01 8.202738203082e-01 -1.739043003938e-01
2.044200000000e-01 8.202323061926e-01 -1.739977767927e-01 1.797676938074e-01 1.739977767927e-01 1.797676938074e-01 1.739977767927e-01 8.202323061926e-01 -1.739977767927e-01
2.044937500000e-01 8.201907776609e-01 -1.740912255300e-01 1.798092223391e-01 1.740912255300e-01 1.798092223391e-01 1.740912255300e-01 8.201907776609e-01 -1.740912255300e-01
2.045675000000e-01 8.201492347220e-01 -1.741846466197e-01 1.798507652780e-01 1.741846466197e-01 1.798507652780e-01 1.741846466197e-01 8.201492347220e-01 -1.741846466197e-01
2.046412500000e-01 8.201076773850e-01 -1.742780400760e-01 1.798923226150e-01 1.742780400760e-01 1.798923226150e-01 1.742780400760e-01 8.201076773850e-01 -1.742780400760e-01
2.047150000000e-01 8.200661056588e-01 -1.743714059129e-01 1.799338943412e-01 1.743714059129e-01 1.799338943412e-01 1.743714059129e-01 8.200661056588e-01 -1.743714059129e-01
2.047887500000e-01 8.200245195522e-01 -1.744647441444e-01 1.799754804478e-01 1.744647441444e-01 1.799754804478e-01 1.744647441444e-01 8.200245195522e-01 -1.744647441444e-01
2.048625000000e-01 8.199829190742e-01 -1.745580547845e-01 1.800170809258e-01 1.745580547845e-01 1.800170809258e-01 1.745580547845e-01 8.199829190742e-01 -1.745580547845e-01
2.049362500000e-01 8.199413042338e-01 -1.746513378472e-01 1.800586957662e-01 1.746513378472e-01 1.800586957662e-01 1.746513378472e-01 8.199413042338e-01 -1.746513378472e-01
2.050100000000e-01 8.198996750397e-01 -1.747445933464e-01 1.801003249603e-01 1.747445933464e-01 1.801003249603e-01 1.747445933464e-01 8.198996750397e-01 -1.747445933464e-01
2.050837500000e-01 8.198580315010e-01 -1.748378212961e-01 1.801419684990e-01 1.748378212961e-01 1.801419684990e-01 1.748378212961e-01 8.198580315010e-01 -1.748378212961e-01
2.051575000000e-01 8.198163736266e-01 -1.749310217102e-01 1.801836263734e-01 1.749310217102e-01 1.801836263734e-01 1.749310217102e-01 8.198163736266e-01 -1.749310217102e-01
2.052312500000e-01 8.197747014252e-01 -1.750241946026e-01 1.802252985748e-01 1.750241946026e-01 1.802252985748e-01 1.750241946026e-01 8.197747014252e-01 -1.750241946026e-01
2.053050000000e-01 8.197330149058e-01 -1.751173399871e-01 1.802669850942e-01 1.751173399871e-01 1.802669850942e-01 1.751173399871e-01 8.197330149058e-01 -1.751173399871e-01
2.053787500000e-01 8.196913140772e-01 -1.752104578777e-01 1.803086859228e-01 1.752104578777e-01 1.803086859228e-01 1.752104578777e-01 8.196913140772e-01 -1.752104578777e-01
2.054525000000e-01 8.196495989483e-01 -1.753035482881e-01 1.803504010517e-01 1.753035482881e-01 1.803504010517e-01 1.753035482881e-01 8.196495989483e-01 -1.753035482881e-01
2.055262500000e-01 8.196078695280e-01 -1.753966112322e-01 1.803921304720e-01 1.753966112322e-01 1.803921304720e-01 1.753966112322e-01 8.196078695280e-01 -1.753966112322e-01
2.056000000000e-01 8.195661258251e-01 -1.754896467238e-01 1.804338741749e-01 1.754896467238e-01 1.804338741749e-01 1.754896467238e-01 8.195661258251e-01 -1.754896467238e-01
2.056737500000e-01 8.195243678485e-01 -1.755826547766e-01 1.804756321515e-01 1.755826547766e-01 1.804756321515e-01 1.755826547766e-01 8.195243678485e-01 -1.755826547766e-01
2.057475000000e-01 8.194825956069e-01 -1.756756354044e-01 1.805174043931e-01 1.756756354044e-01 1.805174043931e-01 1.756756354044e-01 8.194825956069e-01 -1.756756354044e-01
2.058212500000e-01 8.194408091092e-01 -1.757685886209e-01 1.805591908908e-01 1.757685886209e-01 1.805591908908e-01 1.757685886209e-01 8.194408091092e-01 -1.757685886209e-01
2.058950000000e-01 8.193990083642e-01 -1.758615144399e-01 1.806009916358e-01 1.758615144399e-01 1.806009916358e-01 1.758615144399e-01 8.193990083642e-01 -1.758615144399e-01
2.059687500000e-01 8.193571933807e-01 -1.759544128749e-01 1.806428066193e-01 1.759544128749e-01 1.806428066193e-01 1.759544128749e-01 8.193571933807e-01 -1.759544128749e-01
2.060425000000e-01 8.193153641676e-01 -1.760472839398e-01 1.806846358324e-01 1.760472839398e-01 1.806846358324e-01 1.760472839398e-01 8.193153641676e-01 -1.760472839398e-01
2.061162500000e-01 8.192735207336e-01 -1.761401276481e-01 1.807264792664e-01 1.761401276481e-01 1.807264792664e-01 1.761401276481e-01 8.192735207336e-01 -1.761401276481e-01
2.061900000000e-01 8.192316630875e-01 -1.762329440134e-01 1.807683369125e-01 1.762329440134e-01 1.807683369125e-01 1.762329440134e-01 8.192316630875e-01 -1.762329440134e-01
2.062637500000e-01 8.191897912380e-01 -1.763257330495e-01 1.808102087620e-01 1.763257330495e-01 1.808102087620e-01 1.763257330495e-01 8.191897912380e-01 -1.763257330495e-01
2.063375000000e-01 8.191479051940e-01 -1.764184947698e-01 1.808520948060e-01 1.764184947698e-01 1.808520948060e-01 1.764184947698e-01 8.191479051940e-01 -1.764184947698e-01
2.064112500000e-01 8.191060049642e-01 -1.765112291879e-01 1.808939950358e-01 1.765112291879e-01 1.808939950358e-01 1.765112291879e-01 8.191060049642e-01 -1.765112291879e-01
2.064850000000e-01 8.190640905574e-01 -1.766039363175e-01 1.809359094426e-01 1.766039363175e-01 1.809359094426e-01 1.766039363175e-01 8.190640905574e-01 -1.766039363175e-01
2.065587500000e-01 8.190221619824e-01 -1.766966161720e-01 1.809778380176e-01 1.766966161720e-01 1.809778380176e-01 1.766966161720e-01 8.190221619824e-01 -1.766966161720e-01
2.066325000000e-01 8.189802192477e-01 -1.767892687649e-01 1.810197807523e-01 1.767892687649e-01 1.810197807523e-01 1.767892687649e-01 8.189802192477e-01 -1.767892687649e-01
2.067062500000e-01 8.189382623623e-01 -1.768818941097e-01 1.810617376377e-01 1.768818941097e-01 1.810617376377e-01 1.768818941097e-01 8.189382623623e-01 -1.768818941097e-01
2.067800000000e-01 8.188962913348e-01 -1.769744922199e-01 1.811037086652e-01 1.769744922199e-01 1.811037086652e-01 1.769744922199e-01 8.188962913348e-01 -1.769744922199e-01
2.068537500000e-01 8.188543061740e-01 -1.770670631090e-01 1.811456938260e-01 1.770670631090e-01 1.811456938260e-01 1.770670631090e-01 8.188543061740e-01 -1.770670631090e-01
2.069275000000e-01 8.188123068885e-01 -1.771596067903e-01 1.811876931115e-01 1.771596067903e-01 1.811876931115e-01 1.771596067903e-01 8.188123068885e-01 -1.771596067903e-01
2.070012500000e-01 8.187702934870e-01 -1.772521232774e-01 1.812297065130e-01 1.772521232774e-01 1.812297065130e-01 1.772521232774e-01 8.187702934870e-01 -1.772521232774e-01
2.070750000000e-01 8.187282659784e-01 -1.773446125835e-01 1.812717340216e-01 1.773446125835e-01 1.812717340216e-01 1.773446125835e-01 8.187282659784e-01 -1.773446125835e-01
2.071487500000e-01 8.186862243711e-01 -1.774370747220e-01 1.813137756289e-01 1.774370747220e-01 1.813137756289e-01 1.774370747220e-01 8.186862243711e-01 -1.774370747220e-01
2.072225000000e-01 8.186441686741e-01 -1.775295097063e-01 1.813558313259e-01 1.775295097063e-01 1.813558313259e-01 1.775295097063e-01 8.186441686741e-01 -1.775295097063e-01
2.072962500000e-01 8.186020988958e-01 -1.776219175498e-01 1.813979011042e-01 1.776219175498e-01 1.813979011042e-01 1.776219175498e-01 8.186020988958e-01 -1.776219175498e-01
2.073700000000e-01 8.185600150450e-01 -1.777142982657e-01 1.814399849550e-01 1.777142982657e-01 1.814399849550e-01 1.777142982657e-01 8.185600150450e-01 -1.777142982657e-01
2.074437500000e-01 8.185179171304e-01 -1.778066518674e-01 1.814820828696e-01 1.778066518674e-01 1.814820828696e-01 1.778066518674e-01 8.185179171304e-01 -1.778066518674e-01
2.075175000000e-01 8.184758051606e-01 -1.778989783680e-01 1.815241948394e-01 1.778989783680e-01 1.815241948394e-01 1.778989783680e-01 8.184758051606e-01 -1.778989783680e-01
2.075912500000e-01 8.184336791442e-01 -1.779912777809e-01 1.815663208558e-01 1.779912777809e-01 1.815663208558e-01 1.779912777809e-01 8.184336791442e-01 -1.779912777809e-01
2.076650000000e-01 8.183915390899e-01 -1.780835501193e-01 1.816084609101e-01 1.780835501193e-01 1.816084609101e-01 1.780835501193e-01 8.183915390899e-01 -1.780835501193e-01
2.077387500000e-01 8.183493850064e-01 -1.781757953965e-01 1.816506149936e-01 1.781757953965e-01 1.816506149936e-01 1.781757953965e-01 8.183493850064e-01 -1.781757953965e-01
2.078125000000e-01 8.183072169022e-01 -1.782680136255e-01 1.816927830978e-01 1.782680136255e-01 1.816927830978e-01 1.782680136255e-01 8.183072169022e-01 -1.782680136255e-01
2.078862500000e-01 8.182650347859e-01 -1.783602048196e-01 1.817349652141e-01 1.783602048196e-01 1.817349652141e-01 1.783602048196e-01 8.182650347859e-01 -1.783602048196e-01
2.079600000000e-01 8.182228386663e-01 -1.784523689920e-01 1.817771613337e-01 1.784523689920e-01 1.817771613337e-01 1.784523689920e-01 8.182228386663e-01 -1.784523689920e-01
2.080337500000e-01 8.181806285518e-01 -1.785445061557e-01 1.818193714482e-01 1.785445061557e-01 1.818193714482e-01 1.785445061557e-01 8.181806285518e-01 -1.785445061557e-01
2.081075000000e-01 8.181384044512e-01 -1.786366163239e-01 1.818615955488e-01 1.786366163239e-01 1.818615955488e-01 1.786366163239e-01 8.181384044512e-01 -1.786366163239e-01
2.081812500000e-01 8.180961663729e-01 -1.787286995098e-01 1.819038336271e-01 1.787286995098e-01 1.819038336271e-01 1.787286995098e-01 8.180961663729e-01 -1.787286995098e-01
2.082550000000e-01 8.180539143256e-01 -1.788207557263e-01 1.819460856744e-01 1.788207557263e-01 1.819460856744e-01 1.788207557263e-01 8.180539143256e-01 -1.788207557263e-01
2.083287500000e-01 8.180116483178e-01 -1.789127849865e-01 1.819883516822e-01 1.789127849865e-01 1.819883516822e-01 1.789127849865e-01 8.180116483178e-01 -1.789127849865e-01
2.084025000000e-01 8.179693683582e-01 -1.790047873035e-01 1.820306316418e-01 1.790047873035e-01 1.820306316418e-01 1.790047873035e-01 8.179693683582e-01 -1.790047873035e-01
2.084762500000e-01 8.179270744552e-01 -1.790967626903e-01 1.820729255448e-01 1.790967626903e-01 1.820729255448e-01 1.790967626903e-01 8.179270744552e-01 -1.790967626903e-01
2.085500000000e-01 8.178847666175e-01 -1.791887111600e-01 1.821152333825e-01 1.791887111600e-01 1.821152333825e-01 1.791887111600e-01 8.178847666175e-01 -1.791887111600e-01
2.086237500000e-01 8.178424448536e-01 -1.792806327254e-01 1.821575551464e-01 1.792806327254e-01 1.821575551464e-01 1.792806327254e-01 8.178424448536e-01 -1.792806327254e-01
2.086975000000e-01 8.178001091720e-01 -1.793725273995e-01 1.821998908280e-01 1.793725273995e-01 1.821998908280e-01 1.793725273995e-01 8.178001091720e-01 -1.793725273995e-01
2.087712500000e-01 8.177577595813e-01 -1.794643951954e-01 1.822422404187e-01 1.794643951954e-01 1.822422404187e-01 1.794643951954e-01 8.177577595813e-01 -1.794643951954e-01
2.088450000000e-01 8.177153960899e-01 -1.795562361259e-01 1.822846039101e-01 1.795562361259e-01 1.822846039101e-01 1.795562361259e-01 8.177153960899e-01 -1.795562361259e-01
2.089187500000e-01 8.176730187065e-01 -1.796480502040e-01 1.823269812935e-01 1.796480502040e-01 1.823269812935e-01 1.796480502040e-01 8.176730187065e-01 -1.796480502040e-01
2.089925000000e-01 8.176306274396e-01 -1.797398374425e-01 1.823693725604e-01 1.797398374425e-01 1.823693725604e-01 1.797398374425e-01 8.176306274396e-01 -1.797398374425e-01
2.090662500000e-01 8.175882222975e-01 -1.798315978543e-01 1.824117777025e-01 1.798315978543e-01 1.824117777025e-01 1.798315978543e-01 8.175882222975e-01 -1.798315978543e-01
2.091400000000e-01 8.175458032890e-01 -1.799233314522e-01 1.824541967110e-01 1.799233314522e-01 1.824541967110e-01 1.799233314522e-01 8.175458032890e-01 -1.799233314522e-01
2.092137500000e-01 8.175033704223e-01 -1.800150382492e-01 1.824966295777e-01 1.800150382492e-01 1.824966295777e-01 1.800150382492e-01 8.175033704223e-01 -1.800150382492e-01
2.092875000000e-01 8.174609237061e-01 -1.801067182579e-01 1.825390762939e-01 1.801067182579e-01 1.825390762939e-01 1.801067182579e-01 8.174609237061e-01 -1.801067182579e-01
2.093612500000e-01 8.174184631488e-01 -1.801983714913e-01 1.825815368512e-01 1.801983714913e-01 1.825815368512e-01 1.801983714913e-01 8.174184631488e-01 -1.801983714913e-01
2.094350000000e-01 8.173759887589e-01 -1.802899979620e-01 1.826240112411e-01 1.802899979620e-01 1.826240112411e-01 1.802899979620e-01 8.173759887589e-01 -1.802899979620e-01
2.095087500000e-01 8.173335005449e-01 -1.803815976829e-01 1.826664994551e-01 1.803815976829e-01 1.826664994551e-01 1.803815976829e-01 8.173335005449e-01 -1.803815976829e-01
2.095825000000e-01 8.172909985152e-01 -1.804731706667e-01 1.827090014848e-01 1.804731706667e-01 1.827090014848e-01 1.804731706667e-01 8.172909985152e-01 -1.804731706667e-01
2.096562500000e-01 8.172484826783e-01 -1.805647169261e-01 1.827515173217e-01 1.805647169261e-01 1.827515173217e-01 1.805647169261e-01 8.172484826783e-01 -1.805647169261e-01
2.097300000000e-01 8.172059530425e-01 -1.806562364738e-01 1.827940469575e-01 1.806562364738e-01 1.827940469575e-01 1.806562364738e-01 8.172059530425e-01 -1.806562364738e-01
2.098037500000e-01 8.171634096165e-01 -1.807477293225e-01 1.828365903835e-01 1.807477293225e-01 1.828365903835e-01 1.807477293225e-01 8.171634096165e-01 -1.807477293225e-01
2.098775000000e-01 8.171208524085e-01 -1.808391954848e-01 1.828791475915e-01 1.808391954848e-01 1.828791475915e-01 1.808391954848e-01 8.171208524085e-01 -1.808391954848e-01
2.099512500000e-01 8.170782814271e-01 -1.809306349735e-01 1.829217185729e-01 1.809306349735e-01 1.829217185729e-01 1.809306349735e-01 8.170782814271e-01 -1.809306349735e-01
2.100250000000e-01 8.170356966807e-01 -1.810220478011e-01 1.829643033193e-01 1.810220478011e-01 1.829643033193e-01 1.810220478011e-01 8.170356966807e-01 -1.810220478011e-01
2.100987500000e-01 8.169930981775e-01 -1.811134339803e-01 1.830069018225e-01 1.811134339803e-01 1.830069018225e-01 1.811134339803e-01 8.169930981775e-01 -1.811134339803e-01
2.101725000000e-01 8.169504859262e-01 -1.812047935237e-01 1.830495140738e-01 1.812047935237e-01 1.830495140738e-01 1.812047935237e-01 8.169504859262e-01 -1.812047935237e-01
2.102462500000e-01 8.169078599351e-01 -1.812961264438e-01 1.830921400649e-01 1.812961264438e-01 1.830921400649e-01 1.812961264438e-01 8.169078599351e-01 -1.812961264438e-01
2.103200000000e-01 8.168652202125e-01 -1.813874327532e-01 1.831347797875e-01 1.813874327532e-01 1.831347797875e-01 1.813874327532e-01 8.168652202125e-01 -1.813874327532e-01
2.103937500000e-01 8.168225667668e-01 -1.814787124644e-01 1.831774332332e-01 1.814787124644e-01 1.831774332332e-01 1.814787124644e-01 8.168225667668e-01 -1.814787124644e-01
2.104675000000e-01 8.167798996065e-01 -1.815699655899e-01 1.832201003935e-01 1.815699655899e-01 1.832201003935e-01 1.815699655899e-01 8.167798996065e-01 -1.815699655899e-01
2.105412500000e-01 8.167372187400e-01 -1.816611921424e-01 1.832627812600e-01 1.816611921424e-01 1.832627812600e-01 1.816611921424e-01 8.167372187400e-01 -1.816611921424e-01
2.106150000000e-01 8.166945241755e-01 -1.817523921341e-01 1.833054758245e-01 1.817523921341e-01 1.833054758245e-01 1.817523921341e-01 8.166945241755e-01 -1.817523921341e-01
2.106887500000e-01 8.166518159214e-01 -1.818435655777e-01 1.833481840786e-01 1.818435655777e-01 1.833481840786e-01 1.818435655777e-01 8.166518159214e-01 -1.818435655777e-01
2.107625000000e-01 8.166090939862e-01 -1.819347124856e-01 1.833909060138e-01 1.819347124856e-01 1.833909060138e-01 1.819347124856e-01 8.166090939862e-01 -1.819347124856e-01
2.108362500000e-01 8.165663583781e-01 -1.820258328701e-01 1.834336416219e-01 1.820258328701e-01 1.834336416219e-01 1.820258328701e-01 8.165663583781e-01 -1.820258328701e-01
2.109100000000e-01 8.165236091055e-01 -1.821169267438e-01 1.834763908945e-01 1.821169267438e-01 1.834763908945e-01 1.821169267438e-01 8.165236091055e-01 -1.821169267438e-01
2.109837500000e-01 8.164808461768e-01 -1.822079941190e-01 1.835191538232e-01 1.822079941190e-01 1.835191538232e-01 1.822079941190e-01 8.164808461768e-01 -1.822079941190e-01
2.110575000000e-01 8.164380696002e-01 -1.822990350080e-01 1.835619303998e-01 1.822990350080e-01 1.835619303998e-01 1.822990350080e-01 8.164380696002e-01 -1.822990350080e-01
2.111312500000e-01 8.163952793840e-01 -1.823900494233e-01 1.836047206160e-01 1.823900494233e-01 1.836047206160e-01 1.823900494233e-01 8.163952793840e-01 -1.823900494233e-01
2.112050000000e-01 8.163524755367e-01 -1.824810373772e-01 1.836475244633e-01 1.824810373772e-01 1.836475244633e-01 1.824810373772e-01 8.163524755367e-01 -1.824810373772e-01
2.112787500000e-01 8.163096580665e-01 -1.825719988820e-01 1.836903419335e-01 1.825719988820e-01 1.836903419335e-01 1.825719988820e-01 8.163096580665e-01 -1.825719988820e-01
2.113525000000e-01 8.162668269817e-01 -1.826629339500e-01 1.837331730183e-01 1.826629339500e-01 1.837331730183e-01 1.826629339500e-01 8.162668269817e-01 -1.826629339500e-01
2.114262500000e-01 8.162239822907e-01 -1.827538425935e-01 1.837760177093e-01 1.827538425935e-01 1.837760177093e-01 1.827538425935e-01 8.162239822907e-01 -1.827538425935e-01
2.115000000000e-01 8.161811240016e-01 -1.828447248249e-01 1.838188759984e-01 1.828447248249e-01 1.838188759984e-01 1.828447248249e-01 8.161811240016e-01 -1.828447248249e-01
2.115737500000e-01 8.161382521228e-01 -1.829355806562e-01 1.838617478772e-01 1.829355806562e-01 1.838617478772e-01 1.829355806562e-01 8.161382521228e-01 -1.829355806562e-01
2.116475000000e-01 8.160953666626e-01 -1.830264100999e-01 1.839046333374e-01 1.830264100999e-01 1.839046333374e-01 1.830264100999e-01 8.160953666626e-01 -1.830264100999e-01
2.117212500000e-01 8.160524676293e-01 -1.831172131680e-01 1.839475323707e-01 1.831172131680e-01 1.839475323707e-01 1.831172131680e-01 8.160524676293e-01 -1.831172131680e-01
2.117950000000e-01 8.160095550310e-01 -1.832079898728e-01 1.839904449690e-01 1.832079898728e-01 1.839904449690e-01 1.832079898728e-01 8.160095550310e-01 -1.832079898728e-01
2.118687500000e-01 8.159666288761e-01 -1.832987402266e-01 1.840333711239e-01 1.832987402266e-01 1.840333711239e-01 1.832987402266e-01 8.159666288761e-01 -1.832987402266e-01
2.119425000000e-01 8.159236891729e-01 -1.833894642413e-01 1.840763108271e-01 1.833894642413e-01 1.840763108271e-01 1.833894642413e-01 8.159236891729e-01 -1.833894642413e-01
2.120162500000e-01 8.158807359295e-01 -1.834801619293e-01 1.841192640705e-01 1.834801619293e-01 1.841192640705e-01 1.834801619293e-01 8.158807359295e-01 -1.834801619293e-01
2.120900000000e-01 8.158377691542e-01 -1.835708333026e-01 1.841622308458e-01 1.835708333026e-01 1.841622308458e-01 1.835708333026e-01 8.158377691542e-01 -1.835708333026e-01
2.121637500000e-01 8.157947888552e-01 -1.836614783734e-01 1.842052111448e-01 1.836614783734e-01 1.842052111448e-01 1.836614783734e-01 8.157947888552e-01 -1.836614783734e-01
2.122375000000e-01 8.157517950408e-01 -1.837520971537e-01 1.842482049592e-01 1.837520971537e-01 1.842482049592e-01 1.837520971537e-01 8.157517950408e-01 -1.837520971537e-01
2.123112500000e-01 8.157087877193e-01 -1.838426896556e-01 1.842912122807e-01 1.838426896556e-01 1.842912122807e-01 1.838426896556e-01 8.157087877193e-01 -1.838426896556e-01
2.123850000000e-01 8.156657668987e-01 -1.839332558912e-01 1.843342331013e-01 1.839332558912e-01 1.843342331013e-01 1.839332558912e-01 8.156657668987e-01 -1.839332558912e-01
2.124587500000e-01 8.156227325873e-01 -1.840237958726e-01 1.843772674127e-01 1.840237958726e-01 1.843772674127e-01 1.840237958726e-01 8.156227325873e-01 -1.840237958726e-01
2.125325000000e-01 8.155796847934e-01 -1.841143096117e-01 1.844203152066e-01 1.841143096117e-01 1.844203152066e-01 1.841143096117e-01 8.155796847934e-01 -1.841143096117e-01
2.126062500000e-01 8.155366235251e-01 -1.842047971206e-01 1.844633764749e-01 1.842047971206e-01 1.844633764749e-01 1.842047971206e-01 8.155366235251e-01 -1.842047971206e-01
2.126800000000e-01 8.154935487906e-01 -1.842952584113e-01 1.845064512094e-01 1.842952584113e-01 1.845064512094e-01 1.842952584113e-01 8.154935487906e-01 -1.842952584113e-01
2.127537500000e-01 8.154504605981e-01 -1.843856934957e-01 1.845495394019e-01 1.843856934957e-01 1.845495394019e-01 1.843856934957e-01 8.154504605981e-01 -1.843856934957e-01
2.128275000000e-01 8.154073589557e-01 -1.844761023859e-01 1.845926410443e-01 1.844761023859e-01 1.845926410443e-01 1.844761023859e-01 8.154073589557e-01 -1.844761023859e-01
2.129012500000e-01 8.153642438717e-01 -1.845664850937e-01 1.846357561283e-01 1.845664850937e-01 1.846357561283e-01 1.845664850937e-01 8.153642438717e-01 -1.845664850937e-01
2.129750000000e-01 8.153211153542e-01 -1.846568416310e-01 1.846788846458e-01 1.846568416310e-01 1.846788846458e-01 1.846568416310e-01 8.153211153542e-01 -1.846568416310e-01
2.130487500000e-01 8.152779734114e-01 -1.847471720099e-01 1.847220265886e-01 1.847471720099e-01 1.847220265886e-01 1.847471720099e-01 8.152779734114e-01 -1.847471720099e-01
2.131225000000e-01 8.152348180515e-01 -1.848374762422e-01 1.847651819485e-01 1.848374762422e-01 1.847651819485e-01 1.848374762422e-01 8.152348180515e-01 -1.848374762422e-01
2.131962500000e-01 8.151916492824e-01 -1.849277543397e-01 1.848083507176e-01 1.849277543397e-01 1.848083507176e-01 1.849277543397e-01 8.151916492824e-01 -1.849277543397e-01
2.132700000000e-01 8.151484671126e-01 -1.850180063143e-01 1.848515328874e-01 1.850180063143e-01 1.848515328874e-01 1.850180063143e-01 8.151484671126e-01 -1.850180063143e-01
2.133437500000e-01 8.151052715499e-01 -1.851082321779e-01 1.848947284501e-01 1.851082321779e-01 1.848947284501e-01 1.851082321779e-01 8.151052715499e-01 -1.851082321779e-01
2.134175000000e-01 8.150620626027e-01 -1.851984319423e-01 1.849379373973e-01 1.851984319423e-01 1.849379373973e-01 1.851984319423e-01 8.150620626027e-01 -1.851984319423e-01
2.134912500000e-01 8.150188402789e-01 -1.852886056193e-01 1.849811597211e-01 1.852886056193e-01 1.849811597211e-01 1.852886056193e-01 8.150188402789e-01 -1.852886056193e-01
2.135650000000e-01 8.149756045868e-01 -1.853787532207e-01 1.850243954132e-01 1.853787532207e-01 1.850243954132e-01 1.853787532207e-01 8.149756045868e-01 -1.853787532207e-01
2.136387500000e-01 8.149323555344e-01 -1.854688747582e-01 1.850676444656e-01 1.854688747582e-01 1.850676444656e-01 1.854688747582e-01 8.149323555344e-01 -1.854688747582e-01
2.137125000000e-01 8.148890931298e-01 -1.855589702437e-01 1.851109068702e-01 1.855589702437e-01 1.851109068702e-01 1.855589702437e-01 8.148890931298e-01 -1.855589702437e-01
2.137862500000e-01 8.148458173812e-01 -1.856490396888e-01 1.851541826188e-01 1.856490396888e-01 1.851541826188e-01 1.856490396888e-01 8.148458173812e-01 -1.856490396888e-01
2.138600000000e-01 8.148025282966e-01 -1.857390831053e-01 1.851974717034e-01 1.857390831053e-01 1.851974717034e-01 1.857390831053e-01 8.148025282966e-01 -1.857390831053e-01
2.139337500000e-01 8.147592258842e-01 -1.858291005050e-01 1.852407741158e-01 1.858291005050e-01 1.852407741158e-01 1.858291005050e-01 8.147592258842e-01 -1.858291005050e-01
2.140075000000e-01 8.147159101519e-01 -1.859190918994e-01 1.852840898481e-01 1.859190918994e-01 1.852840898481e-01 1.859190918994e-01 8.147159101519e-01 -1.859190918994e-01
2.140812500000e-01 8.146725811080e-01 -1.860090573002e-01 1.853274188920e-01 1.860090573002e-01 1.853274188920e-01 1.860090573002e-01 8.146725811080e-01 -1.860090573002e-01
2.141550000000e-01 8.146292387603e-01 -1.860989967192e-01 1.853707612397e-01 1.860989967192e-01 1.853707612397e-01 1.860989967192e-01 8.146292387603e-01 -1.860989967192e-01
2.142287500000e-01 8.145858831171e-01 -1.861889101680e-01 1.854141168829e-01 1.861889101680e-01 1.854141168829e-01 1.861889101680e-01 8.145858831171e-01 -1.861889101680e-01
2.143025000000e-01 8.145425141864e-01 -1.862787976582e-01 1.854574858136e-01 1.862787976582e-01 1.854574858136e-01 1.862787976582e-01 8.145425141864e-01 -1.862787976582e-01
2.143762500000e-01 8.144991319762e-01 -1.863686592014e-01 1.855008680238e-01 1.863686592014e-01 1.855008680238e-01 1.863686592014e-01 8.144991319762e-01 -1.863686592014e-01
2.144500000000e-01 8.144557364945e-01 -1.864584948091e-01 1.855442635055e-01 1.864584948091e-01 1.855442635055e-01 1.864584948091e-01 8.144557364945e-01 -1.864584948091e-01
2.145237500000e-01 8.144123277495e-01 -1.865483044931e-01 1.855876722505e-01 1.865483044931e-01 1.855876722505e-01 1.865483044931e-01 8.144123277495e-01 -1.865483044931e-01
2.145975000000e-01 8.143689057491e-01 -1.866380882648e-01 1.856310942509e-01 1.866380882648e-01 1.856310942509e-01 1.866380882648e-01 8.143689057491e-01 -1.866380882648e-01
2.146712500000e-01 8.143254705013e-01 -1.867278461357e-01 1.856745294987e-01 1.867278461357e-01 1.856745294987e-01 1.867278461357e-01 8.143254705013e-01 -1.867278461357e-01
2.147450000000e-01 8.142820220143e-01 -1.868175781175e-01 1.857179779857e-01 1.868175781175e-01 1.857179779857e-01 1.868175781175e-01 8.142820220143e-01 -1.868175781175e-01
2.148187500000e-01 8.142385602960e-01 -1.869072842216e-01 1.857614397040e-01 1.869072842216e-01 1.857614397040e-01 1.869072842216e-01 8.142385602960e-01 -1.869072842216e-01
2.148925000000e-01 8.141950853544e-01 -1.869969644596e-01 1.858049146456e-01 1.869969644596e-01 1.858049146456e-01 1.869969644596e-01 8.141950853544e-01 -1.869969644596e-01
2.149662500000e-01 8.141515971975e-01 -1.870866188428e-01 1.858484028025e-01 1.870866188428e-01 1.858484028025e-01 1.870866188428e-01 8.141515971975e-01 -1.870866188428e-01
2.150400000000e-01 8.141080958334e-01 -1.871762473828e-01 1.858919041666e-01 1.871762473828e-01 1.858919041666e-01 1.871762473828e-01 8.141080958334e-01 -1.871762473828e-01
2.151137500000e-01 8.140645812700e-01 -1.872658500910e-01 1.859354187300e-01 1.872658500910e-01 1.859354187300e-01 1.872658500910e-01 8.140645812700e-01 -1.872658500910e-01
2.151875000000e-01 8.140210535152e-01 -1.873554269788e-01 1.859789464848e-01 1.873554269788e-01 1.859789464848e-01 1.873554269788e-01 8.140210535152e-01 -1.873554269788e-01
2.152612500000e-01 8.139775125772e-01 -1.874449780577e-01 1.860224874228e-01 1.874449780577e-01 1.860224874228e-01 1.874449780577e-01 8.139775125772e-01 -1.874449780577e-01
2.153350000000e-01 8.139339584639e-01 -1.875345033391e-01 1.860660415361e-01 1.875345033391e-01 1.860660415361e-01 1.875345033391e-01 8.139339584639e-01 -1.875345033391e-01
2.154087500000e-01 8.138903911832e-01 -1.876240028343e-01 1.861096088168e-01 1.876240028343e-01 1.861096088168e-01 1.876240028343e-01 8.138903911832e-01 -1.876240028343e-01
2.154825000000e-01 8.138468107430e-01 -1.877134765548e-01 1.861531892570e-01 1.877134765548e-01 1.861531892570e-01 1.877134765548e-01 8.138468107430e-01 -1.877134765548e-01
2.155562500000e-01 8.138032171515e-01 -1.878029245117e-01 1.861967828485e-01 1.878029245117e-01 1.861967828485e-01 1.878029245117e-01 8.138032171515e-01 -1.878029245117e-01
2.156300000000e-01 8.137596104165e-01 -1.878923467166e-01 1.862403895835e-01 1.878923467166e-01 1.862403895835e-01 1.878923467166e-01 8.137596104165e-01 -1.878923467166e-01
2.157037500000e-01 8.137159905459e-01 -1.879817431807e-01 1.862840094541e-01 1.879817431807e-01 1.862840094541e-01 1.879817431807e-01 8.137159905459e-01 -1.879817431807e-01
2.157775000000e-01 8.136723575477e-01 -1.880711139153e-01 1.863276424523e-01 1.880711139153e-01 1.863276424523e-01 1.880711139153e-01 8.136723575477e-01 -1.880711139153e-01
2.158512500000e-01 8.136287114299e-01 -1.881604589318e-01 1.863712885701e-01 1.881604589318e-01 1.863712885701e-01 1.881604589318e-01 8.136287114299e-01 -1.881604589318e-01
2.159250000000e-01 8.135850522003e-01 -1.882497782413e-01 1.864149477997e-01 1.882497782413e-01 1.864149477997e-01 1.882497782413e-01 8.135850522003e-01 -1.882497782413e-01
2.159987500000e-01 8.135413798670e-01 -1.883390718552e-01 1.864586201330e-01 1.883390718552e-01 1.864586201330e-01 1.883390718552e-01 8.135413798670e-01 -1.883390718552e-01
2.160725000000e-01 8.134976944377e-01 -1.884283397846e-01 1.865023055623e-01 1.884283397846e-01 1.865023055623e-01 1.884283397846e-01 8.134976944377e-01 -1.884283397846e-01
2.161462500000e-01 8.134539959205e-01 -1.885175820409e-01 1.865460040795e-01 1.885175820409e-01 1.865460040795e-01 1.885175820409e-01 8.134539959205e-01 -1.885175820409e-01
2.162200000000e-01 8.134102843232e-01 -1.886067986352e-01 1.865897156768e-01 1.886067986352e-01 1.865897156768e-01 1.886067986352e-01 8.134102843232e-01 -1.886067986352e-01
2.162937500000e-01 8.133665596538e-01 -1.886959895787e-01 1.866334403462e-01 1.886959895787e-01 1.866334403462e-01 1.886959895787e-01 8.133665596538e-01 -1.886959895787e-01
2.163675000000e-01 8.133228219201e-01 -1.887851548825e-01 1.866771780799e-01 1.887851548825e-01 1.866771780799e-01 1.887851548825e-01 8.133228219201e-01 -1.887851548825e-01
2.164412500000e-01 8.132790711300e-01 -1.888742945580e-01 1.867209288700e-01 1.888742945580e-01 1.867209288700e-01 1.888742945580e-01 8.132790711300e-01 -1.888742945580e-01
2.165150000000e-01 8.132353072914e-01 -1.889634086161e-01 1.867646927086e-01 1.889634086161e-01 1.867646927086e-01 1.889634086161e-01 8.132353072914e-01 -1.889634086161e-01
2.165887500000e-01 8.131915304123e-01 -1.890524970681e-01 1.868084695877e-01 1.890524970681e-01 1.868084695877e-01 1.890524970681e-01 8.131915304123e-01 -1.890524970681e-01
2.166625000000e-01 8.131477405004e-01 -1.891415599251e-01 1.868522594996e-01 1.891415599251e-01 1.868522594996e-01 1.891415599251e-01 8.131477405004e-01 -1.891415599251e-01
2.167362500000e-01 8.131039375636e-01 -1.892305971980e-01 1.868960624364e-01 1.892305971980e-01 1.868960624364e-01 1.892305971980e-01 8.131039375636e-01 -1.892305971980e-01
2.168100000000e-01 8.130601216099e-01 -1.893196088982e-01 1.869398783901e-01 1.893196088982e-01 1.869398783901e-01 1.893196088982e-01 8.130601216099e-01 -1.893196088982e-01
2.168837500000e-01 8.130162926469e-01 -1.894085950365e-01 1.869837073531e-01 1.894085950365e-01 1.869837073531e-01 1.894085950365e-01 8.130162926469e-01 -1.894085950365e-01
2.169575000000e-01 8.129724506828e-01 -1.894975556241e-01 1.870275493172e-01 1.894975556241e-01 1.870275493172e-01 1.894975556241e-01 8.129724506828e-01 -1.894975556241e-01
2.170312500000e-01 8.129285957251e-01 -1.895864906720e-01 1.870714042749e-01 1.895864906720e-01 1.870714042749e-01 1.895864906720e-01 8.129285957251e-01 -1.895864906720e-01
2.171050000000e-01 8.128847277819e-01 -1.896754001913e-01 1.871152722181e-01 1.896754001913e-01 1.871152722181e-01 1.896754001913e-01 8.128847277819e-01 -1.896754001913e-01
2.171787500000e-01 8.128408468609e-01 -1.897642841929e-01 1.871591531391e-01 1.897642841929e-01 1.871591531391e-01 1.897642841929e-01 8.128408468609e-01 -1.897642841929e-01
2.172525000000e-01 8.127969529700e-01 -1.898531426878e-01 1.872030470300e-01 1.898531426878e-01 1.872030470300e-01 1.898531426878e-01 8.127969529700e-01 -1.898531426878e-01
2.173262500000e-01 8.127530461169e-01 -1.899419756870e-01 1.872469538831e-01 1.899419756870e-01 1.872469538831e-01 1.899419756870e-01 8.127530461169e-01 -1.899419756870e-01
2.174000000000e-01 8.127091263096e-01 -1.900307832015e-01 1.872908736904e-01 1.900307832015e-01 1.872908736904e-01 1.900307832015e-01 8.127091263096e-01 -1.900307832015e-01
2.174737500000e-01 8.126651935558e-01 -1.901195652423e-01 1.873348064442e-01 1.901195652423e-01 1.873348064442e-01 1.901195652423e-01 8.126651935558e-01 -1.901195652423e-01
2.175475000000e-01 8.126212478633e-01 -1.902083218202e-01 1.873787521367e-01 1.902083218202e-01 1.873787521367e-01 1.902083218202e-01 8.126212478633e-01 -1.902083218202e-01
2.176212500000e-01 8.125772892399e-01 -1.902970529461e-01 1.874227107601e-01 1.902970529461e-01 1.874227107601e-01 1.902970529461e-01 8.125772892399e-01 -1.902970529461e-01
2.176950000000e-01 8.125333176935e-01 -1.903857586311e-01 1.874666823065e-01 1.903857586311e-01 1.874666823065e-01 1.903857586311e-01 8.125333176935e-01 -1.903857586311e-01
2.177687500000e-01 8.124893332319e-01 -1.904744388859e-01 1.875106667682e-01 1.904744388859e-01 1.875106667682e-01 1.904744388859e-01 8.124893332319e-01 -1.904744388859e-01
2.178425000000e-01 8.124453358627e-01 -1.905630937215e-01 1.875546641373e-01 1.905630937215e-01 1.875546641373e-01 1.905630937215e-01 8.124453358627e-01 -1.905630937215e-01
2.179162500000e-01 8.124013255938e-01 -1.906517231486e-01 1.875986744062e-01 1.906517231486e-01 1.875986744062e-01 1.906517231486e-01 8.124013255938e-01 -1.906517231486e-01
2.179900000000e-01 8.123573024330e-01 -1.907403271783e-01 1.876426975670e-01 1.907403271783e-01 1.876426975670e-01 1.907403271783e-01 8.123573024330e-01 -1.907403271783e-01
2.180637500000e-01 8.123132663880e-01 -1.908289058211e-01 1.876867336120e-01 1.908289058211e-01 1.876867336120e-01 1.908289058211e-01 8.123132663880e-01 -1.908289058211e-01
2.181375000000e-01 8.122692174667e-01 -1.909174590881e-01 1.877307825333e-01 1.909174590881e-01 1.877307825333e-01 1.909174590881e-01 8.122692174667e-01 -1.909174590881e-01
2.182112500000e-01 8.122251556767e-01 -1.910059869899e-01 1.877748443233e-01 1.910059869899e-01 1.877748443233e-01 1.910059869899e-01 8.122251556767e-01 -1.910059869899e-01
2.182850000000e-01 8.121810810258e-01 -1.910944895374e-01 1.878189189742e-01 1.910944895374e-01 1.878189189742e-01 1.910944895374e-01 8.121810810258e-01 -1.910944895374e-01
2.183587500000e-01 8.121369935218e-01 -1.911829667414e-01 1.878630064782e-01 1.911829667414e-01 1.878630064782e-01 1.911829667414e-01 8.121369935218e-01 -1.911829667414e-01
2.184325000000e-01 8.120928931724e-01 -1.912714186125e-01 1.879071068276e-01 1.912714186125e-01 1.879071068276e-01 1.912714186125e-01 8.120928931724e-01 -1.912714186125e-01
2.185062500000e-01 8.120487799854e-01 -1.913598451616e-01 1.879512200146e-01 1.913598451616e-01 1.879512200146e-01 1.913598451616e-01 8.120487799854e-01 -1.913598451616e-01
2.185800000000e-01 8.120046539685e-01 -1.914482463993e-01 1.879953460315e-01 1.914482463993e-01 1.879953460315e-01 1.914482463993e-01 8.120046539685e-01 -1.914482463993e-01
2.186537500000e-01 8.119605151294e-01 -1.915366223364e-01 1.880394848706e-01 1.915366223364e-01 1.880394848706e-01 1.915366223364e-01 8.119605151294e-01 -1.915366223364e-01
2.187275000000e-01 8.119163634758e-01 -1.916249729835e-01 1.880836365242e-01 1.916249729835e-01 1.880836365242e-01 1.916249729835e-01 8.119163634758e-01 -1.916249729835e-01
2.188012500000e-01 8.118721990155e-01 -1.917132983514e-01 1.881278009845e-01 1.917132983514e-01 1.881278009845e-01 1.917132983514e-01 8.118721990155e-01 -1.917132983514e-01
2.188750000000e-01 8.118280217561e-01 -1.918015984507e-01 1.881719782439e-01 1.918015984507e-01 1.881719782439e-01 1.918015984507e-01 8.118280217561e-01 -1.918015984507e-01
2.189487500000e-01 8.117838317054e-01 -1.918898732920e-01 1.882161682946e-01 1.918898732920e-01 1.882161682946e-01 1.918898732920e-01 8.117838317054e-01 -1.918898732920e-01
2.190225000000e-01 8.117396288711e-01 -1.919781228860e-01 1.882603711289e-01 1.919781228860e-01 1.882603711289e-01 1.919781228860e-01 8.117396288711e-01 -1.919781228860e-01
2.190962500000e-01 8.116954132609e-01 -1.920663472434e-01 1.883045867391e-01 1.920663472434e-01 1.883045867391e-01 1.920663472434e-01 8.116954132609e-01 -1.920663472434e-01
2.191700000000e-01 8.116511848825e-01 -1.921545463746e-01 1.883488151175e-01 1.921545463746e-01 1.883488151175e-01 1.921545463746e-01 8.116511848825e-01 -1.921545463746e-01
2.192437500000e-01 8.116069437435e-01 -1.922427202904e-01 1.883930562565e-01 1.922427202904e-01 1.883930562565e-01 1.922427202904e-01 8.116069437435e-01 -1.922427202904e-01
2.193175000000e-01 8.115626898516e-01 -1.923308690013e-01 1.884373101484e-01 1.923308690013e-01 1.884373101484e-01 1.923308690013e-01 8.115626898516e-01 -1.923308690013e-01
2.193912500000e-01 8.115184232145e-01 -1.924189925178e-01 1.884815767855e-01 1.924189925178e-01 1.884815767855e-01 1.924189925178e-01 8.115184232145e-01 -1.924189925178e-01
2.194650000000e-01 8.114741438400e-01 -1.925070908505e-01 1.885258561600e-01 1.925070908505e-01 1.885258561600e-01 1.925070908505e-01 8.114741438400e-01 -1.925070908505e-01
2.195387500000e-01 8.114298517356e-01 -1.925951640100e-01 1.885701482644e-01 1.925951640100e-01 1.885701482644e-01 1.925951640100e-01 8.114298517356e-01 -1.925951640100e-01
2.196125000000e-01 8.113855469089e-01 -1.926832120067e-01 1.886144530911e-01 1.926832120067e-01 1.886144530911e-01 1.926832120067e-01 8.113855469089e-01 -1.926832120067e-01
2.196862500000e-01 8.113412293678e-01 -1.927712348512e-01 1.886587706322e-01 1.927712348512e-01 1.886587706322e-01 1.927712348512e-01 8.113412293678e-01 -1.927712348512e-01
2.197600000000e-01 8.112968991198e-01 -1.928592325540e-01 1.887031008802e-01 1.928592325540e-01 1.887031008802e-01 1.928592325540e-01 8.112968991198e-01 -1.928592325540e-01
2.198337500000e-01 8.112525561725e-01 -1.929472051255e-01 1.887474438275e-01 1.929472051255e-01 1.887474438275e-01 1.929472051255e-01 8.112525561725e-01 -1.929472051255e-01
2.199075000000e-01 8.112082005336e-01 -1.930351525762e-01 1.887917994664e-01 1.930351525762e-01 1.887917994664e-01 1.930351525762e-01 8.112082005336e-01 -1.930351525762e-01
2.199812500000e-01 8.111638322108e-01 -1.931230749165e-01 1.888361677892e-01 1.931230749165e-01 1.888361677892e-01 1.931230749165e-01 8.111638322108e-01 -1.931230749165e-01
2.200550000000e-01 8.111194512116e-01 -1.932109721570e-01 1.888805487884e-01 1.932109721570e-01 1.888805487884e-01 1.932109721570e-01 8.111194512116e-01 -1.932109721570e-01
2.201287500000e-01 8.110750575437e-01 -1.932988443079e-01 1.889249424563e-01 1.932988443079e-01 1.889249424563e-01 1.932988443079e-01 8.110750575437e-01 -1.932988443079e-01
2.202025000000e-01 8.110306512148e-01 -1.933866913798e-01 1.889693487852e-01 1.933866913798e-01 1.889693487852e-01 1.933866913798e-01 8.110306512148e-01 -1.933866913798e-01
2.202762500000e-01 8.109862322323e-01 -1.934745133829e-01 1.890137677677e-01 1.934745133829e-01 1.890137677677e-01 1.934745133829e-01 8.109862322323e-01 -1.934745133829e-01
2.203500000000e-01 8.109418006040e-01 -1.935623103278e-01 1.890581993960e-01 1.935623103278e-01 1.890581993960e-01 1.935623103278e-01 8.109418006040e-01 -1.935623103278e-01
2.204237500000e-01 8.108973563374e-01 -1.936500822247e-01 1.891026436626e-01 1.936500822247e-01 1.891026436626e-01 1.936500822247e-01 8.108973563374e-01 -1.936500822247e-01
2.204975000000e-01 8.108528994402e-01 -1.937378290840e-01 1.891471005598e-01 1.937378290840e-01 1.891471005598e-01 1.937378290840e-01 8.108528994402e-01 -1.937378290840e-01
2.205712500000e-01 8.108084299199e-01 -1.938255509160e-01 1.891915700801e-01 1.938255509160e-01 1.891915700801e-01 1.938255509160e-01 8.108084299199e-01 -1.938255509160e-01
2.206450000000e-01 8.107639477841e-01 -1.939132477311e-01 1.892360522159e-01 1.939132477311e-01 1.892360522159e-01 1.939132477311e-01 8.107639477841e-01 -1.939132477311e-01
2.207187500000e-01 8.107194530404e-01 -1.940009195396e-01 1.892805469596e-01 1.940009195396e-01 1.892805469596e-01 1.940009195396e-01 8.107194530404e-01 -1.940009195396e-01
2.207925000000e-01 8.106749456964e-01 -1.940885663517e-01 1.893250543036e-01 1.940885663517e-01 1.893250543036e-01 1.940885663517e-01 8.106749456964e-01 -1.940885663517e-01
2.208662500000e-01 8.106304257597e-01 -1.941761881778e-01 1.893695742403e-01 1.941761881778e-01 1.893695742403e-01 1.941761881778e-01 8.106304257597e-01 -1.941761881778e-01
2.209400000000e-01 8.105858932378e-01 -1.942637850281e-01 1.894141067622e-01 1.942637850281e-01 1.894141067622e-01 1.942637850281e-01 8.105858932378e-01 -1.942637850281e-01
2.210137500000e-01 8.105413481383e-01 -1.943513569128e-01 1.894586518617e-01 1.943513569128e-01 1.894586518617e-01 1.943513569128e-01 8.105413481383e-01 -1.943513569128e-01
2.210875000000e-01 8.104967904687e-01 -1.944389038423e-01 1.895032095313e-01 1.944389038423e-01 1.895032095313e-01 1.944389038423e-01 8.104967904687e-01 -1.944389038423e-01
2.211612500000e-01 8.104522202367e-01 -1.945264258267e-01 1.895477797633e-01 1.945264258267e-01 1.895477797633e-01 1.945264258267e-01 8.104522202367e-01 -1.945264258267e-01
2.212350000000e-01 8.104076374497e-01 -1.946139228762e-01 1.895923625503e-01 1.946139228762e-01 1.895923625503e-01 1.946139228762e-01 8.104076374497e-01 -1.946139228762e-01
2.213087500000e-01 8.103630421153e-01 -1.947013950010e-01 1.896369578847e-01 1.947013950010e-01 1.896369578847e-01 1.947013950010e-01 8.103630421153e-01 -1.947013950010e-01
2.213825000000e-01 8.103184342410e-01 -1.947888422114e-01 1.896815657590e-01 1.947888422114e-01 1.896815657590e-01 1.947888422114e-01 8.103184342410e-01 -1.947888422114e-01
2.214562500000e-01 8.102738138345e-01 -1.948762645174e-01 1.897261861655e-01 1.948762645174e-01 1.897261861655e-01 1.948762645174e-01 8.102738138345e-01 -1.948762645174e-01
2.215300000000e-01 8.102291809031e-01 -1.949636619293e-01 1.897708190969e-01 1.949636619293e-01 1.897708190969e-01 1.949636619293e-01 8.102291809031e-01 -1.949636619293e-01
2.216037500000e-01 8.101845354545e-01 -1.950510344572e-01 1.898154645455e-01 1.950510344572e-01 1.898154645455e-01 1.950510344572e-01 8.101845354545e-01 -1.950510344572e-01
2.216775000000e-01 8.101398774961e-01 -1.951383821112e-01 1.898601225039e-01 1.951383821112e-01 1.898601225039e-01 1.951383821112e-01 8.101398774961e-01 -1.951383821112e-01
2.217512500000e-01 8.100952070355e-01 -1.952257049014e-01 1.899047929645e-01 1.952257049014e-01 1.899047929645e-01 1.952257049014e-01 8.100952070355e-01 -1.952257049014e-01
2.218250000000e-01 8.100505240802e-01 -1.953130028380e-01 1.899494759198e-01 1.953130028380e-01 1.899494759198e-01 1.953130028380e-01 8.100505240802e-01 -1.953130028380e-01
2.218987500000e-01 8.100058286376e-01 -1.954002759310e-01 1.899941713624e-01 1.954002759310e-01 1.899941713624e-01 1.954002759310e-01 8.100058286376e-01 -1.954002759310e-01
2.219725000000e-01 8.099611207153e-01 -1.954875241905e-01 1.900388792847e-01 1.954875241905e-01 1.900388792847e-01 1.954875241905e-01 8.099611207153e-01 -1.954875241905e-01
2.220462500000e-01 8.099164003209e-01 -1.955747476265e-01 1.900835996791e-01 1.955747476265e-01 1.900835996791e-01 1.955747476265e-01 8.099164003209e-01 -1.955747476265e-01
2.221200000000e-01 8.098716674617e-01 -1.956619462492e-01 1.901283325383e-01 1.956619462492e-01 1.901283325383e-01 1.956619462492e-01 8.098716674617e-01 -1.956619462492e-01
2.221937500000e-01 8.098269221452e-01 -1.957491200685e-01 1.901730778548e-01 1.957491200685e-01 1.901730778548e-01 1.957491200685e-01 8.098269221452e-01 -1.957491200685e-01
2.222675000000e-01 8.097821643790e-01 -1.958362690944e-01 1.902178356210e-01 1.958362690944e-01 1.902178356210e-01 1.958362690944e-01 8.097821643790e-01 -1.958362690944e-01
2.223412500000e-01 8.097373941705e-01 -1.959233933370e-01 1.902626058295e-01 1.959233933370e-01 1.902626058295e-01 1.959233933370e-01 8.097373941705e-01 -1.959233933370e-01
2.224150000000e-01 8.096926115272e-01 -1.960104928063e-01 1.903073884728e-01 1.960104928063e-01 1.903073884728e-01 1.960104928063e-01 8.096926115272e-01 -1.960104928063e-01
2.224887500000e-01 8.096478164565e-01 -1.960975675122e-01 1.903521835435e-01 1.960975675122e-01 1.903521835435e-01 1.960975675122e-01 8.096478164565e-01 -1.960975675122e-01
2.225625000000e-01 8.096030089660e-01 -1.961846174647e-01 1.903969910340e-01 1.961846174647e-01 1.903969910340e-01 1.961846174647e-01 8.096030089660e-01 -1.961846174647e-01
2.226362500000e-01 8.095581890630e-01 -1.962716426738e-01 1.904418109370e-01 1.962716426738e-01 1.904418109370e-01 1.962716426738e-01 8.095581890630e-01 -1.962716426738e-01
2.227100000000e-01 8.095133567551e-01 -1.963586431494e-01 1.904866432449e-01 1.963586431494e-01 1.904866432449e-01 1.963586431494e-01 8.095133567551e-01 -1.963586431494e-01
2.227837500000e-01 8.094685120496e-01 -1.964456189015e-01 1.905314879504e-01 1.964456189015e-01 1.905314879504e-01 1.964456189015e-01 8.094685120496e-01 -1.964456189015e-01
2.228575000000e-01 8.094236549541e-01 -1.965325699398e-01 1.905763450459e-01 1.965325699398e-01 1.905763450459e-01 1.965325699398e-01 8.094236549541e-01 -1.965325699398e-01
2.229312500000e-01 8.093787854759e-01 -1.966194962744e-01 1.906212145241e-01 1.966194962744e-01 1.906212145241e-01 1.966194962744e-01 8.093787854759e-01 -1.966194962744e-01
2.230050000000e-01 8.093339036225e-01 -1.967063979152e-01 1.906660963775e-01 1.967063979152e-01 1.906660963775e-01 1.967063979152e-01 8.093339036225e-01 -1.967063979152e-01
2.230787500000e-01 8.092890094013e-01 -1.967932748719e-01 1.907109905987e-01 1.967932748719e-01 1.907109905987e-01 1.967932748719e-01 8.092890094013e-01 -1.967932748719e-01
2.231525000000e-01 8.092441028197e-01 -1.968801271546e-01 1.907558971803e-01 1.968801271546e-01 1.907558971803e-01 1.968801271546e-01 8.092441028197e-01 -1.968801271546e-01
2.232262500000e-01 8.091991838853e-01 -1.969669547729e-01 1.908008161147e-01 1.969669547729e-01 1.908008161147e-01 1.969669547729e-01 8.091991838853e-01 -1.969669547729e-01
2.233000000000e-01 8.091542526053e-01 -1.970537577368e-01 1.908457473947e-01 1.970537577368e-01 1.908457473947e-01 1.970537577368e-01 8.091542526053e-01 -1.970537577368e-01
2.233737500000e-01 8.091093089872e-01 -1.971405360560e-01 1.908906910128e-01 1.971405360560e-01 1.908906910128e-01 1.971405360560e-01 8.091093089872e-01 -1.971405360560e-01
2.234475000000e-01 8.090643530383e-01 -1.972272897405e-01 1.909356469617e-01 1.972272897405e-01 1.909356469617e-01 1.972272897405e-01 8.090643530383e-01 -1.972272897405e-01
2.235212500000e-01 8.090193847662e-01 -1.973140187999e-01 1.909806152338e-01 1.973140187999e-01 1.909806152338e-01 1.973140187999e-01 8.090193847662e-01 -1.973140187999e-01
2.235950000000e-01 8.089744041782e-01 -1.974007232441e-01 1.910255958218e-01 1.974007232441e-01 1.910255958218e-01 1.974007232441e-01 8.089744041782e-01 -1.974007232441e-01
2.236687500000e-01 8.089294112816e-01 -1.974874030828e-01 1.910705887184e-01 1.974874030828e-01 1.910705887184e-01 1.974874030828e-01 8.089294112816e-01 -1.974874030828e-01
2.237425000000e-01 8.088844060839e-01 -1.975740583258e-01 1.911155939161e-01 1.975740583258e-01 1.911155939161e-01 1.975740583258e-01 8.088844060839e-01 -1.975740583258e-01
2.238162500000e-01 8.088393885925e-01 -1.976606889828e-01 1.911606114075e-01 1.976606889828e-01 1.911606114075e-01 1.976606889828e-01 8.088393885925e-01 -1.976606889828e-01
2.238900000000e-01 8.087943588147e-01 -1.977472950636e-01 1.912056411853e-01 1.977472950636e-01 1.912056411853e-01 1.977472950636e-01 8.087943588147e-01 -1.977472950636e-01
2.239637500000e-01 8.087493167579e-01 -1.978338765779e-01 1.912506832421e-01 1.978338765779e-01 1.912506832421e-01 1.978338765779e-01 8.087493167579e-01 -1.978338765779e-01
2.240375000000e-01 8.087042624295e-01 -1.979204335353e-01 1.912957375705e-01 1.979204335353e-01 1.912957375705e-01 1.979204335353e-01 8.087042624295e-01 -1.979204335353e-01
2.241112500000e-01 8.086591958368e-01 -1.980069659457e-01 1.913408041632e-01 1.980069659457e-01 1.913408041632e-01 1.980069659457e-01 8.086591958368e-01 -1.980069659457e-01
2.241850000000e-01 8.086141169872e-01 -1.980934738186e-01 1.913858830128e-01 1.980934738186e-01 1.913858830128e-01 1.980934738186e-01 8.086141169872e-01 -1.980934738186e-01
2.242587500000e-01 8.085690258880e-01 -1.981799571637e-01 1.914309741120e-01 1.981799571637e-01 1.914309741120e-01 1.981799571637e-01 8.085690258880e-01 -1.981799571637e-01
2.243325000000e-01 8.085239225466e-01 -1.982664159907e-01 1.914760774534e-01 1.982664159907e-01 1.914760774534e-01 1.982664159907e-01 8.085239225466e-01 -1.982664159907e-01
2.244062500000e-01 8.084788069704e-01 -1.983528503092e-01 1.915211930296e-01 1.983528503092e-01 1.915211930296e-01 1.983528503092e-01 8.084788069704e-01 -1.983528503092e-01
2.244800000000e-01 8.084336791667e-01 -1.984392601288e-01 1.915663208333e-01 1.984392601288e-01 1.915663208333e-01 1.984392601288e-01 8.084336791667e-01 -1.984392601288e-01
2.245537500000e-01 8.083885391428e-01 -1.985256454592e-01 1.916114608572e-01 1.985256454592e-01 1.916114608572e-01 1.985256454592e-01 8.083885391428e-01 -1.985256454592e-01
2.246275000000e-01 8.083433869060e-01 -1.986120063100e-01 1.916566130940e-01 1.986120063100e-01 1.916566130940e-01 1.986120063100e-01 8.083433869060e-01 -1.986120063100e-01
2.247012500000e-01 8.082982224637e-01 -1.986983426907e-01 1.917017775363e-01 1.986983426907e-01 1.917017775363e-01 1.986983426907e-01 8.082982224637e-01 -1.986983426907e-01
2.247750000000e-01 8.082530458232e-01 -1.987846546110e-01 1.917469541768e-01 1.987846546110e-01 1.917469541768e-01 1.987846546110e-01 8.082530458232e-01 -1.987846546110e-01
2.248487500000e-01 8.082078569919e-01 -1.988709420804e-01 1.917921430081e-01 1.988709420804e-01 1.917921430081e-01 1.988709420804e-01 8.082078569919e-01 -1.988709420804e-01
2.249225000000e-01 8.081626559769e-01 -1.989572051084e-01 1.918373440231e-01 1.989572051084e-01 1.918373440231e-01 1.989572051084e-01 8.081626559769e-01 -1.989572051084e-01
2.249962500000e-01 8.081174427858e-01 -1.990434437046e-01 1.918825572142e-01 1.990434437046e-01 1.918825572142e-01 1.990434437046e-01 8.081174427858e-01 -1.990434437046e-01
2.250700000000e-01 8.080722174256e-01 -1.991296578785e-01 1.919277825744e-01 1.991296578785e-01 1.919277825744e-01 1.991296578785e-01 8.080722174256e-01 -1.991296578785e-01
2.251437500000e-01 8.080269799038e-01 -1.992158476396e-01 1.919730200962e-01 1.992158476396e-01 1.919730200962e-01 1.992158476396e-01 8.080269799038e-01 -1.992158476396e-01
2.252175000000e-01 8.079817302277e-01 -1.993020129975e-01 1.920182697723e-01 1.993020129975e-01 1.920182697723e-01 1.993020129975e-01 8.079817302277e-01 -1.993020129975e-01
2.252912500000e-01 8.079364684045e-01 -1.993881539616e-01 1.920635315955e-01 1.993881539616e-01 1.920635315955e-01 1.993881539616e-01 8.079364684045e-01 -1.993881539616e-01
2.253650000000e-01 8.078911944415e-01 -1.994742705415e-01 1.921088055585e-01 1.994742705415e-01 1.921088055585e-01 1.994742705415e-01 8.078911944415e-01 -1.994742705415e-01
2.254387500000e-01 8.078459083460e-01 -1.995603627464e-01 1.921540916540e-01 1.995603627464e-01 1.921540916540e-01 1.995603627464e-01 8.078459083460e-01 -1.995603627464e-01
2.255125000000e-01 8.078006101253e-01 -1.996464305860e-01 1.921993898747e-01 1.996464305860e-01 1.921993898747e-01 1.996464305860e-01 8.078006101253e-01 -1.996464305860e-01
2.255862500000e-01 8.077552997866e-01 -1.997324740697e-01 1.922447002134e-01 1.997324740697e-01 1.922447002134e-01 1.997324740697e-01 8.077552997866e-01 -1.997324740697e-01
2.256600000000e-01 8.077099773373e-01 -1.998184932068e-01 1.922900226627e-01 1.998184932068e-01 1.922900226627e-01 1.998184932068e-01 8.077099773373e-01 -1.998184932068e-01
2.257337500000e-01 8.076646427846e-01 -1.999044880069e-01 1.923353572154e-01 1.999044880069e-01 1.923353572154e-01 1.999044880069e-01 8.076646427846e-01 -1.999044880069e-01
2.258075000000e-01 8.076192961357e-01 -1.999904584793e-01 1.923807038643e-01 1.999904584793e-01 1.923807038643e-01 1.999904584793e-01 8.076192961357e-01 -1.999904584793e-01
2.258812500000e-01 8.075739373979e-01 -2.000764046333e-01 1.924260626021e-01 2.000764046333e-01 1.924260626021e-01 2.000764046333e-01 8.075739373979e-01 -2.000764046333e-01
2.259550000000e-01 8.075285665785e-01 -2.001623264784e-01 1.924714334215e-01 2.001623264784e-01 1.924714334215e-01 2.001623264784e-01 8.075285665785e-01 -2.001623264784e-01
2.260287500000e-01 8.074831836847e-01 -2.002482240240e-01 1.925168163153e-01 2.002482240240e-01 1.925168163153e-01 2.002482240240e-01 8.074831836847e-01 -2.002482240240e-01
2.261025000000e-01 8.074377887237e-01 -2.003340972794e-01 1.925622112763e-01 2.003340972794e-01 1.925622112763e-01 2.003340972794e-01 8.074377887237e-01 -2.003340972794e-01
2.261762500000e-01 8.073923817028e-01 -2.004199462539e-01 1.926076182972e-01 2.004199462539e-01 1.926076182972e-01 2.004199462539e-01 8.073923817028e-01 -2.004199462539e-01
2.262500000000e-01 8.073469626292e-01 -2.005057709568e-01 1.926530373708e-01 2.005057709568e-01 1.926530373708e-01 2.005057709568e-01 8.073469626292e-01 -2.005057709568e-01
2.263237500000e-01 8.073015315102e-01 -2.005915713976e-01 1.926984684898e-01 2.005915713976e-01 1.926984684898e-01 2.005915713976e-01 8.073015315102e-01 -2.005915713976e-01
2.263975000000e-01 8.072560883529e-01 -2.006773475854e-01 1.927439116471e-01 2.006773475854e-01 1.927439116471e-01 2.006773475854e-01 8.072560883529e-01 -2.006773475854e-01
2.264712500000e-01 8.072106331647e-01 -2.007630995296e-01 1.927893668353e-01 2.007630995296e-01 1.927893668353e-01 2.007630995296e-01 8.072106331647e-01 -2.007630995296e-01
2.265450000000e-01 8.071651659526e-01 -2.008488272395e-01 1.928348340474e-01 2.008488272395e-01 1.928348340474e-01 2.008488272395e-01 8.071651659526e-01 -2.008488272395e-01
2.266187500000e-01 8.071196867240e-01 -2.009345307243e-01 1.928803132760e-01 2.009345307243e-01 1.928803132760e-01 2.009345307243e-01 8.071196867240e-01 -2.009345307243e-01
2.266925000000e-01 8.070741954860e-01 -2.010202099933e-01 1.929258045140e-01 2.010202099933e-01 1.929258045140e-01 2.010202099933e-01 8.070741954860e-01 -2.010202099933e-01
2.267662500000e-01 8.070286922458e-01 -2.011058650558e-01 1.929713077542e-01 2.011058650558e-01 1.929713077542e-01 2.011058650558e-01 8.070286922458e-01 -2.011058650558e-01
2.268400000000e-01 8.069831770107e-01 -2.011914959209e-01 1.930168229893e-01 2.011914959209e-01 1.930168229893e-01 2.011914959209e-01 8.069831770107e-01 -2.011914959209e-01
2.269137500000e-01 8.069376497878e-01 -2.012771025979e-01 1.930623502122e-01 2.012771025979e-01 1.930623502122e-01 2.012771025979e-01 8.069376497878e-01 -2.012771025979e-01
2.269875000000e-01 8.068921105843e-01 -2.013626850960e-01 1.931078894157e-01 2.013626850960e-01 1.931078894157e-01 2.013626850960e-01 8.068921105843e-01 -2.013626850960e-01
2.270612500000e-01 8.068465594074e-01 -2.014482434244e-01 1.931534405926e-01 2.014482434244e-01 1.931534405926e-01 2.014482434244e-01 8.068465594074e-01 -2.014482434244e-01
2.271350000000e-01 8.068009962643e-01 -2.015337775922e-01 1.931990037357e-01 2.015337775922e-01 1.931990037357e-01 2.015337775922e-01 8.068009962643e-01 -2.015337775922e-01
2.272087500000e-01 8.067554211622e-01 -2.016192876088e-01 1.932445788378e-01 2.016192876088e-01 1.932445788378e-01 2.016192876088e-01 8.067554211622e-01 -2.016192876088e-01
2.272825000000e-01 8.067098341082e-01 -2.017047734831e-01 1.932901658918e-01 2.017047734831e-01 1.932901658918e-01 2.017047734831e-01 8.067098341082e-01 -2.017047734831e-01
2.273562500000e-01 8.066642351095e-01 -2.017902352244e-01 1.933357648905e-01 2.017902352244e-01 1.933357648905e-01 2.017902352244e-01 8.066642351095e-01 -2.017902352244e-01
2.274300000000e-01 8.066186241733e-01 -2.018756728418e-01 1.933813758267e-01 2.018756728418e-01 1.933813758267e-01 2.018756728418e-01 8.066186241733e-01 -2.018756728418e-01
2.275037500000e-01 8.065730013067e-01 -2.019610863444e-01 1.934269986933e-01 2.019610863444e-01 1.934269986933e-01 2.019610863444e-01 8.065730013067e-01 -2.019610863444e-01
2.275775000000e-01 8.065273665169e-01 -2.020464757414e-01 1.934726334831e-01 2.020464757414e-01 1.934726334831e-01 2.020464757414e-01 8.065273665169e-01 -2.020464757414e-01
2.276512500000e-01 8.064817198111e-01 -2.021318410418e-01 1.935182801889e-01 2.021318410418e-01 1.935182801889e-01 2.021318410418e-01 8.064817198111e-01 -2.021318410418e-01
2.277250000000e-01 8.064360611963e-01 -2.022171822547e-01 1.935639388037e-01 2.022171822547e-01 1.935639388037e-01 2.022171822547e-01 8.064360611963e-01 -2.022171822547e-01
2.277987500000e-01 8.063903906798e-01 -2.023024993893e-01 1.936096093202e-01 2.023024993893e-01 1.936096093202e-01 2.023024993893e-01 8.063903906798e-01 -2.023024993893e-01
2.278725000000e-01 8.063447082686e-01 -2.023877924545e-01 1.936552917314e-01 2.023877924545e-01 1.936552917314e-01 2.023877924545e-01 8.063447082686e-01 -2.023877924545e-01
2.279462500000e-01 8.062990139699e-01 -2.024730614595e-01 1.937009860301e-01 2.024730614595e-01 1.937009860301e-01 2.024730614595e-01 8.062990139699e-01 -2.024730614595e-01
2.280200000000e-01 8.062533077909e-01 -2.025583064132e-01 1.937466922091e-01 2.025583064132e-01 1.937466922091e-01 2.025583064132e-01 8.062533077909e-01 -2.025583064132e-01
2.280937500000e-01 8.062075897387e-01 -2.026435273247e-01 1.937924102613e-01 2.026435273247e-01 1.937924102613e-01 2.026435273247e-01 8.062075897387e-01 -2.026435273247e-01
2.281675000000e-01 8.061618598203e-01 -2.027287242031e-01 1.938381401797e-01 2.027287242031e-01 1.938381401797e-01 2.027287242031e-01 8.061618598203e-01 -2.027287242031e-01
2.282412500000e-01 8.061161180430e-01 -2.028138970573e-01 1.938838819570e-01 2.028138970573e-01 1.938838819570e-01 2.028138970573e-01 8.061161180430e-01 -2.028138970573e-01
2.283150000000e-01 8.060703644138e-01 -2.028990458964e-01 1.939296355862e-01 2.028990458964e-01 1.939296355862e-01 2.028990458964e-01 8.060703644138e-01 -2.028990458964e-01
2.283887500000e-01 8.060245989398e-01 -2.029841707293e-01 1.939754010602e-01 2.029841707293e-01 1.939754010602e-01 2.029841707293e-01 8.060245989398e-01 -2.029841707293e-01
2.284625000000e-01 8.059788216281e-01 -2.030692715649e-01 1.940211783719e-01 2.030692715649e-01 1.940211783719e-01 2.030692715649e-01 8.059788216281e-01 -2.030692715649e-01
2.285362500000e-01 8.059330324859e-01 -2.031543484124e-01 1.940669675141e-01 2.031543484124e-01 1.940669675141e-01 2.031543484124e-01 8.059330324859e-01 -2.031543484124e-01
2.286100000000e-01 8.058872315202e-01 -2.032394012805e-01 1.941127684798e-01 2.032394012805e-01 1.941127684798e-01 2.032394012805e-01 8.058872315202e-01 -2.032394012805e-01
2.286837500000e-01 8.058414187382e-01 -2.033244301783e-01 1.941585812618e-01 2.033244301783e-01 1.941585812618e-01 2.033244301783e-01 8.058414187382e-01 -2.033244301783e-01
2.287575000000e-01 8.057955941469e-01 -2.034094351146e-01 1.942044058531e-01 2.034094351146e-01 1.942044058531e-01 2.034094351146e-01 8.057955941469e-01 -2.034094351146e-01
2.288312500000e-01 8.057497577534e-01 -2.034944160985e-01 1.942502422466e-01 2.034944160985e-01 1.942502422466e-01 2.034944160985e-01 8.057497577534e-01 -2.034944160985e-01
2.289050000000e-01 8.057039095648e-01 -2.035793731387e-01 1.942960904352e-01 2.035793731387e-01 1.942960904352e-01 2.035793731387e-01 8.057039095648e-01 -2.035793731387e-01
2.289787500000e-01 8.056580495881e-01 -2.036643062443e-01 1.943419504119e-01 2.036643062443e-01 1.943419504119e-01 2.036643062443e-01 8.056580495881e-01 -2.036643062443e-01
2.290525000000e-01 8.056121778305e-01 -2.037492154240e-01 1.943878221695e-01 2.037492154240e-01 1.943878221695e-01 2.037492154240e-01 8.056121778305e-01 -2.037492154240e-01
2.291262500000e-01 8.055662942990e-01 -2.038341006867e-01 1.944337057010e-01 2.038341006867e-01 1.944337057010e-01 2.038341006867e-01 8.055662942990e-01 -2.038341006867e-01
2.292000000000e-01 8.055203990007e-01 -2.039189620414e-01 1.944796009993e-01 2.039189620414e-01 1.944796009993e-01 2.039189620414e-01 8.055203990007e-01 -2.039189620414e-01
2.292737500000e-01 8.054744919427e-01 -2.040037994968e-01 1.945255080573e-01 2.040037994968e-01 1.945255080573e-01 2.040037994968e-01 8.054744919427e-01 -2.040037994968e-01
2.293475000000e-01 8.054285731319e-01 -2.040886130618e-01 1.945714268681e-01 2.040886130618e-01 1.945714268681e-01 2.040886130618e-01 8.054285731319e-01 -2.040886130618e-01
2.294212500000e-01 8.053826425754e-01 -2.041734027453e-01 1.946173574246e-01 2.041734027453e-01 1.946173574246e-01 2.041734027453e-01 8.053826425754e-01 -2.041734027453e-01
2.294950000000e-01 8.053367002804e-01 -2.042581685559e-01 1.946632997196e-01 2.042581685559e-01 1.946632997196e-01 2.042581685559e-01 8.053367002804e-01 -2.042581685559e-01
2.295687500000e-01 8.052907462538e-01 -2.043429105026e-01 1.947092537462e-01 2.043429105026e-01 1.947092537462e-01 2.043429105026e-01 8.052907462538e-01 -2.043429105026e-01
2.296425000000e-01 8.052447805027e-01 -2.044276285941e-01 1.947552194973e-01 2.044276285941e-01 1.947552194973e-01 2.044276285941e-01 8.052447805027e-01 -2.044276285941e-01
2.297162500000e-01 8.051988030341e-01 -2.045123228392e-01 1.948011969659e-01 2.045123228392e-01 1.948011969659e-01 2.045123228392e-01 8.051988030341e-01 -2.045123228392e-01
2.297900000000e-01 8.051528138551e-01 -2.045969932467e-01 1.948471861449e-01 2.045969932467e-01 1.948471861449e-01 2.045969932467e-01 8.051528138551e-01 -2.045969932467e-01
2.298637500000e-01 8.051068129726e-01 -2.046816398254e-01 1.948931870274e-01 2.046816398254e-01 1.948931870274e-01 2.046816398254e-01 8.051068129726e-01 -2.046816398254e-01
2.299375000000e-01 8.050608003938e-01 -2.047662625839e-01 1.949391996062e-01 2.047662625839e-01 1.949391996062e-01 2.047662625839e-01 8.050608003938e-01 -2.047662625839e-01
2.300112500000e-01 8.050147761255e-01 -2.048508615310e-01 1.949852238745e-01 2.048508615310e-01 1.949852238745e-01 2.048508615310e-01 8.050147761255e-01 -2.048508615310e-01
2.300850000000e-01 8.049687401750e-01 -2.049354366755e-01 1.950312598250e-01 2.049354366755e-01 1.950312598250e-01 2.049354366755e-01 8.049687401750e-01 -2.049354366755e-01
2.301587500000e-01 8.049226925490e-01 -2.050199880261e-01 1.950773074510e-01 2.050199880261e-01 1.950773074510e-01 2.050199880261e-01 8.049226925490e-01 -2.050199880261e-01
2.302325000000e-01 8.048766332548e-01 -2.051045155914e-01 1.951233667452e-01 2.051045155914e-01 1.951233667452e-01 2.051045155914e-01 8.048766332548e-01 -2.051045155914e-01
2.303062500000e-01 8.048305622992e-01 -2.051890193801e-01 1.951694377008e-01 2.051890193801e-01 1.951694377008e-01 2.051890193801e-01 8.048305622992e-01 -2.051890193801e-01
2.303800000000e-01 8.047844796893e-01 -2.052734994010e-01 1.952155203107e-01 2.052734994010e-01 1.952155203107e-01 2.052734994010e-01 8.047844796893e-01 -2.052734994010e-01
2.304537500000e-01 8.047383854320e-01 -2.053579556627e-01 1.952616145680e-01 2.053579556627e-01 1.952616145680e-01 2.053579556627e-01 8.047383854320e-01 -2.053579556627e-01
2.305275000000e-01 8.046922795345e-01 -2.054423881739e-01 1.953077204655e-01 2.054423881739e-01 1.953077204655e-01 2.054423881739e-01 8.046922795345e-01 -2.054423881739e-01
2.306012500000e-01 8.046461620035e-01 -2.055267969432e-01 1.953538379965e-01 2.055267969432e-01 1.953538379965e-01 2.055267969432e-01 8.046461620035e-01 -2.055267969432e-01
2.306750000000e-01 8.046000328462e-01 -2.056111819792e-01 1.953999671538e-01 2.056111819792e-01 1.953999671538e-01 2.056111819792e-01 8.046000328462e-01 -2.056111819792e-01
2.307487500000e-01 8.045538920696e-01 -2.056955432906e-01 1.954461079304e-01 2.056955432906e-01 1.954461079304e-01 2.056955432906e-01 8.045538920696e-01 -2.056955432906e-01
2.308225000000e-01 8.045077396805e-01 -2.057798808860e-01 1.954922603195e-01 2.057798808860e-01 1.954922603195e-01 2.057798808860e-01 8.045077396805e-01 -2.057798808860e-01
2.308962500000e-01 8.044615756860e-01 -2.058641947740e-01 1.955384243140e-01 2.058641947740e-01 1.955384243140e-01 2.058641947740e-01 8.044615756860e-01 -2.058641947740e-01
2.309700000000e-01 8.044154000930e-01 -2.059484849632e-01 1.955845999070e-01 2.059484849632e-01 1.955845999070e-01 2.059484849632e-01 8.044154000930e-01 -2.059484849632e-01
2.310437500000e-01 8.043692129085e-01 -2.060327514622e-01 1.956307870915e-01 2.060327514622e-01 1.956307870915e-01 2.060327514622e-01 8.043692129085e-01 -2.060327514622e-01
2.311175000000e-01 8.043230141395e-01 -2.061169942795e-01 1.956769858605e-01 2.061169942795e-01 1.956769858605e-01 2.061169942795e-01 8.043230141395e-01 -2.061169942795e-01
2.311912500000e-01 8.042768037930e-01 -2.062012134237e-01 1.957231962070e-01 2.062012134237e-01 1.957231962070e-01 2.062012134237e-01 8.042768037930e-01 -2.062012134237e-01
2.312650000000e-01 8.042305818758e-01 -2.062854089033e-01 1.957694181242e-01 2.062854089033e-01 1.957694181242e-01 2.062854089033e-01 8.042305818758e-01 -2.062854089033e-01
2.313387500000e-01 8.041843483949e-01 -2.063695807270e-01 1.958156516051e-01 2.063695807270e-01 1.958156516051e-01 2.063695807270e-01 8.041843483949e-01 -2.063695807270e-01
2.314125000000e-01 8.041381033573e-01 -2.064537289032e-01 1.958618966427e-01 2.064537289032e-01 1.958618966427e-01 2.064537289032e-01 8.041381033573e-01 -2.064537289032e-01
2.314862500000e-01 8.040918467699e-01 -2.065378534404e-01 1.959081532301e-01 2.065378534404e-01 1.959081532301e-01 2.065378534404e-01 8.040918467699e-01 -2.065378534404e-01
2.315600000000e-01 8.040455786397e-01 -2.066219543472e-01 1.959544213603e-01 2.066219543472e-01 1.959544213603e-01 2.066219543472e-01 8.040455786397e-01 -2.066219543472e-01
2.316337500000e-01 8.039992989736e-01 -2.067060316321e-01 1.960007010264e-01 2.067060316321e-01 1.960007010264e-01 2.067060316321e-01 8.039992989736e-01 -2.067060316321e-01
2.317075000000e-01 8.039530077784e-01 -2.067900853034e-01 1.960469922216e-01 2.067900853034e-01 1.960469922216e-01 2.067900853034e-01 8.039530077784e-01 -2.067900853034e-01
2.317812500000e-01 8.039067050613e-01 -2.068741153698e-01 1.960932949387e-01 2.068741153698e-01 1.960932949387e-01 2.068741153698e-01 8.039067050613e-01 -2.068741153698e-01
2.318550000000e-01 8.038603908290e-01 -2.069581218397e-01 1.961396091710e-01 2.069581218397e-01 1.961396091710e-01 2.069581218397e-01 8.038603908290e-01 -2.069581218397e-01
2.319287500000e-01 8.038140650885e-01 -2.070421047214e-01 1.961859349115e-01 2.070421047214e-01 1.961859349115e-01 2.070421047214e-01 8.038140650885e-01 -2.070421047214e-01
2.320025000000e-01 8.037677278467e-01 -2.071260640236e-01 1.962322721533e-01 2.071260640236e-01 1.962322721533e-01 2.071260640236e-01 8.037677278467e-01 -2.071260640236e-01
2.320762500000e-01 8.037213791105e-01 -2.072099997546e-01 1.962786208895e-01 2.072099997546e-01 1.962786208895e-01 2.072099997546e-01 8.037213791105e-01 -2.072099997546e-01
2.321500000000e-01 8.036750188868e-01 -2.072939119228e-01 1.963249811132e-01 2.072939119228e-01 1.963249811132e-01 2.072939119228e-01 8.036750188868e-01 -2.072939119228e-01
2.322237500000e-01 8.036286471826e-01 -2.073778005366e-01 1.963713528174e-01 2.073778005366e-01 1.963713528174e-01 2.073778005366e-01 8.036286471826e-01 -2.073778005366e-01
2.322975000000e-01 8.035822640047e-01 -2.074616656045e-01 1.964177359953e-01 2.074616656045e-01 1.964177359953e-01 2.074616656045e-01 8.035822640047e-01 -2.074616656045e-01
2.323712500000e-01 8.035358693600e-01 -2.075455071348e-01 1.964641306400e-01 2.075455071348e-01 1.964641306400e-01 2.075455071348e-01 8.035358693600e-01 -2.075455071348e-01
2.324450000000e-01 8.034894632555e-01 -2.076293251359e-01 1.965105367445e-01 2.076293251359e-01 1.965105367445e-01 2.076293251359e-01 8.034894632555e-01 -2.076293251359e-01
2.325187500000e-01 8.034430456979e-01 -2.077131196162e-01 1.965569543020e-01 2.077131196162e-01 1.965569543020e-01 2.077131196162e-01 8.034430456979e-01 -2.077131196162e-01
2.325925000000e-01 8.033966166943e-01 -2.077968905841e-01 1.966033833057e-01 2.077968905841e-01 1.966033833057e-01 2.077968905841e-01 8.033966166943e-01 -2.077968905841e-01
2.326662500000e-01 8.033501762514e-01 -2.078806380478e-01 1.966498237486e-01 2.078806380478e-01 1.966498237486e-01 2.078806380478e-01 8.033501762514e-01 -2.078806380478e-01
2.327400000000e-01 8.033037243762e-01 -2.079643620158e-01 1.966962756238e-01 2.079643620158e-01 1.966962756238e-01 2.079643620158e-01 8.033037243762e-01 -2.079643620158e-01
2.328137500000e-01 8.032572610755e-01 -2.080480624964e-01 1.967427389245e-01 2.080480624964e-01 1.967427389245e-01 2.080480624964e-01 8.032572610755e-01 -2.080480624964e-01
2.328875000000e-01 8.032107863562e-01 -2.081317394978e-01 1.967892136438e-01 2.081317394978e-01 1.967892136438e-01 2.081317394978e-01 8.032107863562e-01 -2.081317394978e-01
2.329612500000e-01 8.031643002252e-01 -2.082153930284e-01 1.968356997748e-01 2.082153930284e-01 1.968356997748e-01 2.082153930284e-01 8.031643002252e-01 -2.082153930284e-01
2.330350000000e-01 8.031178026892e-01 -2.082990230965e-01 1.968821973108e-01 2.082990230965e-01 1.968821973108e-01 2.082990230965e-01 8.031178026892e-01 -2.082990230965e-01
2.331087500000e-01 8.030712937553e-01 -2.083826297104e-01 1.969287062447e-01 2.083826297104e-01 1.969287062447e-01 2.083826297104e-01 8.030712937553e-01 -2.083826297104e-01
2.331825000000e-01 8.030247734302e-01 -2.084662128783e-01 1.969752265698e-01 2.084662128783e-01 1.969752265698e-01 2.084662128783e-01 8.030247734302e-01 -2.084662128783e-01
2.332562500000e-01 8.029782417208e-01 -2.085497726085e-01 1.970217582792e-01 2.085497726085e-01 1.970217582792e-01 2.085497726085e-01 8.029782417208e-01 -2.085497726085e-01
2.333300000000e-01 8.029316986340e-01 -2.086333089093e-01 1.970683013660e-01 2.086333089093e-01 1.970683013660e-01 2.086333089093e-01 8.029316986340e-01 -2.086333089093e-01
2.334037500000e-01 8.028851441765e-01 -2.087168217890e-01 1.971148558235e-01 2.087168217890e-01 1.971148558235e-01 2.087168217890e-01 8.028851441765e-01 -2.087168217890e-01
2.334775000000e-01 8.028385783552e-01 -2.088003112556e-01 1.971614216448e-01 2.088003112556e-01 1.971614216448e-01 2.088003112556e-01 8.028385783552e-01 -2.088003112556e-01
2.335512500000e-01 8.027920011771e-01 -2.088837773176e-01 1.972079988229e-01 2.088837773176e-01 1.972079988229e-01 2.088837773176e-01 8.027920011771e-01 -2.088837773176e-01
2.336250000000e-01 8.027454126488e-01 -2.089672199831e-01 1.972545873512e-01 2.089672199831e-01 1.972545873512e-01 2.089672199831e-01 8.027454126488e-01 -2.089672199831e-01
2.336987500000e-01 8.026988127772e-01 -2.090506392602e-01 1.973011872228e-01 2.090506392602e-01 1.973011872228e-01 2.090506392602e-01 8.026988127772e-01 -2.090506392602e-01
2.337725000000e-01 8.026522015692e-01 -2.091340351573e-01 1.973477984308e-01 2.091340351573e-01 1.973477984308e-01 2.091340351573e-01 8.026522015692e-01 -2.091340351573e-01
2.338462500000e-01 8.026055790315e-01 -2.092174076824e-01 1.973944209685e-01 2.092174076824e-01 1.973944209685e-01 2.092174076824e-01 8.026055790315e-01 -2.092174076824e-01
2.339200000000e-01 8.025589451711e-01 -2.093007568438e-01 1.974410548289e-01 2.093007568438e-01 1.974410548289e-01 2.093007568438e-01 8.025589451711e-01 -2.093007568438e-01
2.339937500000e-01 8.025122999946e-01 -2.093840826496e-01 1.974877000054e-01 2.093840826496e-01 1.974877000054e-01 2.093840826496e-01 8.025122999946e-01 -2.093840826496e-01
2.340675000000e-01 8.024656435090e-01 -2.094673851081e-01 1.975343564910e-01 2.094673851081e-01 1.975343564910e-01 2.094673851081e-01 8.024656435090e-01 -2.094673851081e-01
2.341412500000e-01 8.024189757209e-01 -2.095506642272e-01 1.975810242791e-01 2.095506642272e-01 1.975810242791e-01 2.095506642272e-01 8.024189757209e-01 -2.095506642272e-01
2.342150000000e-01 8.023722966373e-01 -2.096339200152e-01 1.976277033627e-01 2.096339200152e-01 1.976277033627e-01 2.096339200152e-01 8.023722966373e-01 -2.096339200152e-01
2.342887500000e-01 8.023256062650e-01 -2.097171524801e-01 1.976743937350e-01 2.097171524801e-01 1.976743937350e-01 2.097171524801e-01 8.023256062650e-01 -2.097171524801e-01
2.343625000000e-01 8.022789046106e-01 -2.098003616302e-01 1.977210953894e-01 2.098003616302e-01 1.977210953894e-01 2.098003616302e-01 8.022789046106e-01 -2.098003616302e-01
2.344362500000e-01 8.022321916811e-01 -2.098835474734e-01 1.977678083189e-01 2.098835474734e-01 1.977678083189e-01 2.098835474734e-01 8.022321916811e-01 -2.098835474734e-01
2.345100000000e-01 8.021854674832e-01 -2.099667100180e-01 1.978145325168e-01 2.099667100180e-01 1.978145325168e-01 2.099667100180e-01 8.021854674832e-01 -2.099667100180e-01
2.345837500000e-01 8.021387320237e-01 -2.100498492720e-01 1.978612679763e-01 2.100498492720e-01 1.978612679763e-01 2.100498492720e-01 8.021387320237e-01 -2.100498492720e-01
2.346575000000e-01 8.020919853093e-01 -2.101329652434e-01 1.979080146907e-01 2.101329652434e-01 1.979080146907e-01 2.101329652434e-01 8.020919853093e-01 -2.101329652434e-01
2.347312500000e-01 8.020452273469e-01 -2.102160579403e-01 1.979547726531e-01 2.102160579403e-01 1.979547726531e-01 2.102160579403e-01 8.020452273469e-01 -2.102160579403e-01
2.348050000000e-01 8.019984581433e-01 -2.102991273708e-01 1.980015418567e-01 2.102991273708e-01 1.980015418567e-01 2.102991273708e-01 8.019984581433e-01 -2.102991273708e-01
2.348787500000e-01 8.019516777051e-01 -2.103821735429e-01 1.980483222949e-01 2.103821735429e-01 1.980483222949e-01 2.103821735429e-01 8.019516777051e-01 -2.103821735429e-01
2.349525000000e-01 8.019048860392e-01 -2.104651964647e-01 1.980951139608e-01 2.104651964647e-01 1.980951139608e-01 2.104651964647e-01 8.019048860392e-01 -2.104651964647e-01
2.350262500000e-01 8.018580831523e-01 -2.105481961442e-01 1.981419168477e-01 2.105481961442e-01 1.981419168477e-01 2.105481961442e-01 8.018580831523e-01 -2.105481961442e-01
2.351000000000e-01 8.018112690512e-01 -2.106311725893e-01 1.981887309488e-01 2.106311725893e-01 1.981887309488e-01 2.106311725893e-01 8.018112690512e-01 -2.106311725893e-01
2.351737500000e-01 8.017644437427e-01 -2.107141258082e-01 1.982355562573e-01 2.107141258082e-01 1.982355562573e-01 2.107141258082e-01 8.017644437427e-01 -2.107141258082e-01
2.352475000000e-01 8.017176072335e-01 -2.107970558088e-01 1.982823927665e-01 2.107970558088e-01 1.982823927665e-01 2.107970558088e-01 8.017176072335e-01 -2.107970558088e-01
2.353212500000e-01 8.016707595303e-01 -2.108799625991e-01 1.983292404697e-01 2.108799625991e-01 1.983292404697e-01 2.108799625991e-01 8.016707595303e-01 -2.108799625991e-01
2.353950000000e-01 8.016239006399e-01 -2.109628461870e-01 1.983760993601e-01 2.109628461870e-01 1.983760993601e-01 2.109628461870e-01 8.016239006399e-01 -2.109628461870e-01
2.354687500000e-01 8.015770305691e-01 -2.110457065806e-01 1.984229694309e-01 2.110457065806e-01 1.984229694309e-01 2.110457065806e-01 8.015770305691e-01 -2.110457065806e-01
2.355425000000e-01 8.015301493246e-01 -2.111285437877e-01 1.984698506754e-01 2.111285437877e-01 1.984698506754e-01 2.111285437877e-01 8.015301493246e-01 -2.111285437877e-01
2.356162500000e-01 8.014832569130e-01 -2.112113578165e-01 1.985167430870e-01 2.112113578165e-01 1.985167430870e-01 2.112113578165e-01 8.014832569130e-01 -2.112113578165e-01
2.356900000000e-01 8.014363533413e-01 -2.112941486746e-01 1.985636466587e-01 2.112941486746e-01 1.985636466587e-01 2.112941486746e-01 8.014363533413e-01 -2.112941486746e-01
2.357637500000e-01 8.013894386160e-01 -2.113769163702e-01 1.986105613840e-01 2.113769163702e-01 1.986105613840e-01 2.113769163702e-01 8.013894386160e-01 -2.113769163702e-01
2.358375000000e-01 8.013425127439e-01 -2.114596609111e-01 1.986574872561e-01 2.114596609111e-01 1.986574872561e-01 2.114596609111e-01 8.013425127439e-01 -2.114596609111e-01
2.359112500000e-01 8.012955757317e-01 -2.115423823053e-01 1.987044242683e-01 2.115423823053e-01 1.987044242683e-01 2.115423823053e-01 8.012955757317e-01 -2.115423823053e-01
2.359850000000e-01 8.012486275862e-01 -2.116250805606e-01 1.987513724138e-01 2.116250805606e-01 1.987513724138e-01 2.116250805606e-01 8.012486275862e-01 -2.116250805606e-01
2.360587500000e-01 8.012016683140e-01 -2.117077556849e-01 1.987983316860e-01 2.117077556849e-01 1.987983316860e-01 2.117077556849e-01 8.012016683140e-01 -2.117077556849e-01
2.361325000000e-01 8.011546979219e-01 -2.117904076861e-01 1.988453020781e-01 2.117904076861e-01 1.988453020781e-01 2.117904076861e-01 8.011546979219e-01 -2.117904076861e-01
2.362062500000e-01 8.011077164166e-01 -2.118730365721e-01 1.988922835834e-01 2.118730365721e-01 1.988922835834e-01 2.118730365721e-01 8.011077164166e-01 -2.118730365721e-01
2.362800000000e-01 8.010607238048e-01 -2.119556423507e-01 1.989392761952e-01 2.119556423507e-01 1.989392761952e-01 2.119556423507e-01 8.010607238048e-01 -2.119556423507e-01
2.363537500000e-01 8.010137200932e-01 -2.120382250298e-01 1.989862799068e-01 2.120382250298e-01 1.989862799068e-01 2.120382250298e-01 8.010137200932e-01 -2.120382250298e-01
2.364275000000e-01 8.009667052884e-01 -2.121207846172e-01 1.990332947116e-01 2.121207846172e-01 1.990332947116e-01 2.121207846172e-01 8.009667052884e-01 -2.121207846172e-01
2.365012500000e-01 8.009196793972e-01 -2.122033211208e-01 1.990803206028e-01 2.122033211208e-01 1.990803206028e-01 2.122033211208e-01 8.009196793972e-01 -2.122033211208e-01
2.365750000000e-01 8.008726424263e-01 -2.122858345484e-01 1.991273575737e-01 2.122858345484e-01 1.991273575737e-01 2.122858345484e-01 8.008726424263e-01 -2.122858345484e-01
2.366487500000e-01 8.008255943824e-01 -2.123683249078e-01 1.991744056176e-01 2.123683249078e-01 1.991744056176e-01 2.123683249078e-01 8.008255943824e-01 -2.123683249078e-01
2.367225000000e-01 8.007785352721e-01 -2.124507922068e-01 1.992214647279e-01 2.124507922068e-01 1.992214647279e-01 2.124507922068e-01 8.007785352721e-01 -2.124507922068e-01
2.367962500000e-01 8.007314651021e-01 -2.125332364532e-01 1.992685348979e-01 2.125332364532e-01 1.992685348979e-01 2.125332364532e-01 8.007314651021e-01 -2.125332364532e-01
2.368700000000e-01 8.006843838791e-01 -2.126156576547e-01 1.993156161209e-01 2.126156576547e-01 1.993156161209e-01 2.126156576547e-01 8.006843838791e-01 -2.126156576547e-01
2.369437500000e-01 8.006372916098e-01 -2.126980558193e-01 1.993627083902e-01 2.126980558193e-01 1.993627083902e-01 2.126980558193e-01 8.006372916098e-01 -2.126980558193e-01
2.370175000000e-01 8.005901883008e-01 -2.127804309545e-01 1.994098116992e-01 2.127804309545e-01 1.994098116992e-01 2.127804309545e-01 8.005901883008e-01 -2.127804309545e-01
2.370912500000e-01 8.005430739588e-01 -2.128627830683e-01 1.994569260412e-01 2.128627830683e-01 1.994569260412e-01 2.128627830683e-01 8.005430739588e-01 -2.128627830683e-01
2.371650000000e-01 8.004959485905e-01 -2.129451121683e-01 1.995040514095e-01 2.129451121683e-01 1.995040514095e-01 2.129451121683e-01 8.004959485905e-01 -2.129451121683e-01
2.372387500000e-01 8.004488122025e-01 -2.130274182622e-01 1.995511877975e-01 2.130274182622e-01 1.995511877975e-01 2.130274182622e-01 8.004488122025e-01 -2.130274182622e-01
2.373125000000e-01 8.004016648015e-01 -2.131097013579e-01 1.995983351985e-01 2.131097013579e-01 1.995983351985e-01 2.131097013579e-01 8.004016648015e-01 -2.131097013579e-01
2.373862500000e-01 8.003545063941e-01 -2.131919614630e-01 1.996454936059e-01 2.131919614630e-01 1.996454936059e-01 2.131919614630e-01 8.003545063941e-01 -2.131919614630e-01
2.374600000000e-01 8.003073369871e-01 -2.132741985852e-01 1.996926630129e-01 2.132741985852e-01 1.996926630129e-01 2.132741985852e-01 8.003073369871e-01 -2.132741985852e-01
2.375337500000e-01 8.002601565869e-01 -2.133564127322e-01 1.997398434131e-01 2.133564127322e-01 1.997398434131e-01 2.133564127322e-01 8.002601565869e-01 -2.133564127322e-01
2.376075000000e-01 8.002129652004e-01 -2.134386039118e-01 1.997870347996e-01 2.134386039118e-01 1.997870347996e-01 2.134386039118e-01 8.002129652004e-01 -2.134386039118e-01
2.376812500000e-01 8.001657628341e-01 -2.135207721316e-01 1.998342371659e-01 2.135207721316e-01 1.998342371659e-01 2.135207721316e-01 8.001657628341e-01 -2.135207721316e-01
2.377550000000e-01 8.001185494946e-01 -2.136029173993e-01 1.998814505054e-01 2.136029173993e-01 1.998814505054e-01 2.136029173993e-01 8.001185494946e-01 -2.136029173993e-01
2.378287500000e-01 8.000713251886e-01 -2.136850397225e-01 1.999286748114e-01 2.136850397225e-01 1.999286748114e-01 2.136850397225e-01 8.000713251886e-01 -2.136850397225e-01
2.379025000000e-01 8.000240899227e-01 -2.137671391089e-01 1.999759100773e-01 2.137671391089e-01 1.999759100773e-01 2.137671391089e-01 8.000240899227e-01 -2.137671391089e-01
2.379762500000e-01 7.999768437036e-01 -2.138492155662e-01 2.000231562964e-01 2.138492155662e-01 2.000231562964e-01 2.138492155662e-01 7.999768437036e-01 -2.138492155662e-01
2.380500000000e-01 7.999295865378e-01 -2.139312691019e-01 2.000704134622e-01 2.139312691019e-01 2.000704134622e-01 2.139312691019e-01 7.999295865378e-01 -2.139312691019e-01
2.381237500000e-01 7.998823184320e-01 -2.140132997238e-01 2.001176815680e-01 2.140132997238e-01 2.001176815680e-01 2.140132997238e-01 7.998823184320e-01 -2.140132997238e-01
2.381975000000e-01 7.998350393929e-01 -2.140953074395e-01 2.001649606071e-01 2.140953074395e-01 2.001649606071e-01 2.140953074395e-01 7.998350393929e-01 -2.140953074395e-01
2.382712500000e-01 7.997877494269e-01 -2.141772922564e-01 2.002122505731e-01 2.141772922564e-01 2.002122505731e-01 2.141772922564e-01 7.997877494269e-01 -2.141772922564e-01
2.383450000000e-01 7.997404485407e-01 -2.142592541823e-01 2.002595514593e-01 2.142592541823e-01 2.002595514593e-01 2.142592541823e-01 7.997404485407e-01 -2.142592541823e-01
2.384187500000e-01 7.996931367410e-01 -2.143411932248e-01 2.003068632590e-01 2.143411932248e-01 2.003068632590e-01 2.143411932248e-01 7.996931367410e-01 -2.143411932248e-01
2.384925000000e-01 7.996458140344e-01 -2.144231093914e-01 2.003541859656e-01 2.144231093914e-01 2.003541859656e-01 2.144231093914e-01 7.996458140344e-01 -2.144231093914e-01
2.385662500000e-01 7.995984804273e-01 -2.145050026897e-01 2.004015195727e-01 2.145050026897e-01 2.004015195727e-01 2.145050026897e-01 7.995984804273e-01 -2.145050026897e-01
2.386400000000e-01 7.995511359265e-01 -2.145868731272e-01 2.004488640735e-01 2.145868731272e-01 2.004488640735e-01 2.145868731272e-01 7.995511359265e-01 -2.145868731272e-01
2.387137500000e-01 7.995037805385e-01 -2.146687207116e-01 2.004962194615e-01 2.146687207116e-01 2.004962194615e-01 2.146687207116e-01 7.995037805385e-01 -2.146687207116e-01
2.387875000000e-01 7.994564142699e-01 -2.147505454503e-01 2.005435857301e-01 2.147505454503e-01 2.005435857301e-01 2.147505454503e-01 7.994564142699e-01 -2.147505454503e-01
2.388612500000e-01 7.994090371273e-01 -2.148323473509e-01 2.005909628727e-01 2.148323473509e-01 2.005909628727e-01 2.148323473509e-01 7.994090371273e-01 -2.148323473509e-01
2.389350000000e-01 7.993616491173e-01 -2.149141264210e-01 2.006383508827e-01 2.149141264210e-01 2.006383508827e-01 2.149141264210e-01 7.993616491173e-01 -2.149141264210e-01
2.390087500000e-01 7.993142502465e-01 -2.149958826680e-01 2.006857497535e-01 2.149958826680e-01 2.006857497535e-01 2.149958826680e-01 7.993142502465e-01 -2.149958826680e-01
2.390825000000e-01 7.992668405214e-01 -2.150776160995e-01 2.007331594786e-01 2.150776160995e-01 2.007331594786e-01 2.150776160995e-01 7.992668405214e-01 -2.150776160995e-01
2.391562500000e-01 7.992194199486e-01 -2.151593267229e-01 2.007805800514e-01 2.151593267229e-01 2.007805800514e-01 2.151593267229e-01 7.992194199486e-01 -2.151593267229e-01
2.392300000000e-01 7.991719885346e-01 -2.152410145458e-01 2.008280114654e-01 2.152410145458e-01 2.008280114654e-01 2.152410145458e-01 7.991719885346e-01 -2.152410145458e-01
2.393037500000e-01 7.991245462862e-01 -2.153226795756e-01 2.008754537138e-01 2.153226795756e-01 2.008754537138e-01 2.153226795756e-01 7.991245462862e-01 -2.153226795756e-01
2.393775000000e-01 7.990770932097e-01 -2.154043218199e-01 2.009229067903e-01 2.154043218199e-01 2.009229067903e-01 2.154043218199e-01 7.990770932097e-01 -2.154043218199e-01
2.394512500000e-01 7.990296293118e-01 -2.154859412861e-01 2.009703706882e-01 2.154859412861e-01 2.009703706882e-01 2.154859412861e-01 7.990296293118e-01 -2.154859412861e-01
2.395250000000e-01 7.989821545991e-01 -2.155675379815e-01 2.010178454009e-01 2.155675379815e-01 2.010178454009e-01 2.155675379815e-01 7.989821545991e-01 -2.155675379815e-01
2.395987500000e-01 7.989346690780e-01 -2.156491119138e-01 2.010653309220e-01 2.156491119138e-01 2.010653309220e-01 2.156491119138e-01 7.989346690780e-01 -2.156491119138e-01
2.396725000000e-01 7.988871727552e-01 -2.157306630904e-01 2.011128272448e-01 2.157306630904e-01 2.011128272448e-01 2.157306630904e-01 7.988871727552e-01 -2.157306630904e-01
2.397462500000e-01 7.988396656371e-01 -2.158121915185e-01 2.011603343629e-01 2.158121915185e-01 2.011603343629e-01 2.158121915185e-01 7.988396656371e-01 -2.158121915185e-01
2.398200000000e-01 7.987921477304e-01 -2.158936972058e-01 2.012078522696e-01 2.158936972058e-01 2.012078522696e-01 2.158936972058e-01 7.987921477304e-01 -2.158936972058e-01
2.398937500000e-01 7.987446190415e-01 -2.159751801596e-01 2.012553809585e-01 2.159751801596e-01 2.012553809585e-01 2.159751801596e-01 7.987446190415e-01 -2.159751801596e-01
2.399675000000e-01 7.986970795770e-01 -2.160566403873e-01 2.013029204230e-01 2.160566403873e-01 2.013029204230e-01 2.160566403873e-01 7.986970795770e-01 -2.160566403873e-01
2.400412500000e-01 7.986495293435e-01 -2.161380778963e-01 2.013504706565e-01 2.161380778963e-01 2.013504706565e-01 2.161380778963e-01 7.986495293435e-01 -2.161380778963e-01
2.401150000000e-01 7.986019683474e-01 -2.162194926940e-01 2.013980316526e-01 2.162194926940e-01 2.013980316526e-01 2.162194926940e-01 7.986019683474e-01 -2.162194926940e-01
2.401887500000e-01 7.985543965954e-01 -2.163008847877e-01 2.014456034046e-01 2.163008847877e-01 2.014456034046e-01 2.163008847877e-01 7.985543965954e-01 -2.163008847877e-01
2.402625000000e-01 7.985068140938e-01 -2.163822541849e-01 2.014931859062e-01 2.163822541849e-01 2.014931859062e-01 2.163822541849e-01 7.985068140938e-01 -2.163822541849e-01
2.403362500000e-01 7.984592208493e-01 -2.164636008930e-01 2.015407791507e-01 2.164636008930e-01 2.015407791507e-01 2.164636008930e-01 7.984592208493e-01 -2.164636008930e-01
2.404100000000e-01 7.984116168684e-01 -2.165449249191e-01 2.015883831316e-01 2.165449249191e-01 2.015883831316e-01 2.165449249191e-01 7.984116168684e-01 -2.165449249191e-01
2.404837500000e-01 7.983640021575e-01 -2.166262262708e-01 2.016359978425e-01 2.166262262708e-01 2.016359978425e-01 2.166262262708e-01 7.983640021575e-01 -2.166262262708e-01
2.405575000000e-01 7.983163767232e-01 -2.167075049553e-01 2.016836232768e-01 2.167075049553e-01 2.016836232768e-01 2.167075049553e-01 7.983163767232e-01 -2.167075049553e-01
2.406312500000e-01 7.982687405721e-01 -2.167887609800e-01 2.017312594279e-01 2.167887609800e-01 2.017312594279e-01 2.167887609800e-01 7.982687405721e-01 -2.167887609800e-01
2.407050000000e-01 7.982210937105e-01 -2.168699943522e-01 2.017789062895e-01 2.168699943522e-01 2.017789062895e-01 2.168699943522e-01 7.982210937105e-01 -2.168699943522e-01
2.407787500000e-01 7.981734361451e-01 -2.169512050792e-01 2.018265638549e-01 2.169512050792e-01 2.018265638549e-01 2.169512050792e-01 7.981734361451e-01 -2.169512050792e-01
2.408525000000e-01 7.981257678822e-01 -2.170323931682e-01 2.018742321178e-01 2.170323931682e-01 2.018742321178e-01 2.170323931682e-01 7.981257678822e-01 -2.170323931682e-01
2.409262500000e-01 7.980780889285e-01 -2.171135586267e-01 2.019219110715e-01 2.171135586267e-01 2.019219110715e-01 2.171135586267e-01 7.980780889285e-01 -2.171135586267e-01
2.410000000000e-01 7.980303992903e-01 -2.171947014618e-01 2.019696007097e-01 2.171947014618e-01 2.019696007097e-01 2.171947014618e-01 7.980303992903e-01 -2.171947014618e-01
2.410737500000e-01 7.979826989742e-01 -2.172758216809e-01 2.020173010258e-01 2.172758216809e-01 2.020173010258e-01 2.172758216809e-01 7.979826989742e-01 -2.172758216809e-01
2.411475000000e-01 7.979349879868e-01 -2.173569192913e-01 2.020650120132e-01 2.173569192913e-01 2.020650120132e-01 2.173569192913e-01 7.979349879868e-01 -2.173569192913e-01
2.412212500000e-01 7.978872663343e-01 -2.174379943001e-01 2.021127336657e-01 2.174379943001e-01 2.021127336657e-01 2.174379943001e-01 7.978872663343e-01 -2.174379943001e-01
2.412950000000e-01 7.978395340234e-01 -2.175190467146e-01 2.021604659766e-01 2.175190467146e-01 2.021604659766e-01 2.175190467146e-01 7.978395340234e-01 -2.175190467146e-01
2.413687500000e-01 7.977917910606e-01 -2.176000765421e-01 2.022082089394e-01 2.176000765421e-01 2.022082089394e-01 2.176000765421e-01 7.977917910606e-01 -2.176000765421e-01
2.414425000000e-01 7.977440374522e-01 -2.176810837899e-01 2.022559625478e-01 2.176810837899e-01 2.022559625478e-01 2.176810837899e-01 7.977440374522e-01 -2.176810837899e-01
2.415162500000e-01 7.976962732048e-01 -2.177620684650e-01 2.023037267952e-01 2.177620684650e-01 2.023037267952e-01 2.177620684650e-01 7.976962732048e-01 -2.177620684650e-01
2.415900000000e-01 7.976484983248e-01 -2.178430305749e-01 2.023515016752e-01 2.178430305749e-01 2.023515016752e-01 2.178430305749e-01 7.976484983248e-01 -2.178430305749e-01
2.416637500000e-01 7.976007128187e-01 -2.179239701265e-01 2.023992871813e-01 2.179239701265e-01 2.023992871813e-01 2.179239701265e-01 7.976007128187e-01 -2.179239701265e-01
2.417375000000e-01 7.975529166929e-01 -2.180048871273e-01 2.024470833071e-01 2.180048871273e-01 2.024470833071e-01 2.180048871273e-01 7.975529166929e-01 -2.180048871273e-01
2.418112500000e-01 7.975051099540e-01 -2.180857815843e-01 2.024948900460e-01 2.180857815843e-01 2.024948900460e-01 2.180857815843e-01 7.975051099540e-01 -2.180857815843e-01
2.418850000000e-01 7.974572926084e-01 -2.181666535048e-01 2.025427073916e-01 2.181666535048e-01 2.025427073916e-01 2.181666535048e-01 7.974572926084e-01 -2.181666535048e-01
2.419587500000e-01 7.974094646625e-01 -2.182475028958e-01 2.025905353375e-01 2.182475028958e-01 2.025905353375e-01 2.182475028958e-01 7.974094646625e-01 -2.182475028958e-01
2.420325000000e-01 7.973616261227e-01 -2.183283297647e-01 2.026383738773e-01 2.183283297647e-01 2.026383738773e-01 2.183283297647e-01 7.973616261227e-01 -2.183283297647e-01
2.421062500000e-01 7.973137769956e-01 -2.184091341185e-01 2.026862230044e-01 2.184091341185e-01 2.026862230044e-01 2.184091341185e-01 7.973137769956e-01 -2.184091341185e-01
2.421800000000e-01 7.972659172876e-01 -2.184899159644e-01 2.027340827124e-01 2.184899159644e-01 2.027340827124e-01 2.184899159644e-01 7.972659172876e-01 -2.184899159644e-01
2.422537500000e-01 7.972180470050e-01 -2.185706753095e-01 2.027819529950e-01 2.185706753095e-01 2.027819529950e-01 2.185706753095e-01 7.972180470050e-01 -2.185706753095e-01
2.423275000000e-01 7.971701661544e-01 -2.186514121610e-01 2.028298338456e-01 2.186514121610e-01 2.028298338456e-01 2.186514121610e-01 7.971701661544e-01 -2.186514121610e-01
2.424012500000e-01 7.971222747422e-01 -2.187321265260e-01 2.028777252578e-01 2.187321265260e-01 2.028777252578e-01 2.187321265260e-01 7.971222747422e-01 -2.187321265260e-01
2.424750000000e-01 7.970743727748e-01 -2.188128184116e-01 2.029256272252e-01 2.188128184116e-01 2.029256272252e-01 2.188128184116e-01 7.970743727748e-01 -2.188128184116e-01
2.425487500000e-01 7.970264602586e-01 -2.188934878249e-01 2.029735397414e-01 2.188934878249e-01 2.029735397414e-01 2.188934878249e-01 7.970264602586e-01 -2.188934878249e-01
2.426225000000e-01 7.969785372001e-01 -2.189741347731e-01 2.030214627999e-01 2.189741347731e-01 2.030214627999e-01 2.189741347731e-01 7.969785372001e-01 -2.189741347731e-01
2.426962500000e-01 7.969306036057e-01 -2.190547592632e-01 2.030693963943e-01 2.190547592632e-01 2.030693963943e-01 2.190547592632e-01 7.969306036057e-01 -2.190547592632e-01
2.427700000000e-01 7.968826594818e-01 -2.191353613023e-01 2.031173405182e-01 2.191353613023e-01 2.031173405182e-01 2.191353613023e-01 7.968826594818e-01 -2.191353613023e-01
2.428437500000e-01 7.968347048348e-01 -2.192159408974e-01 2.031652951652e-01 2.192159408974e-01 2.031652951652e-01 2.192159408974e-01 7.968347048348e-01 -2.192159408974e-01
2.429175000000e-01 7.967867396711e-01 -2.192964980558e-01 2.032132603289e-01 2.192964980558e-01 2.032132603289e-01 2.192964980558e-01 7.967867396711e-01 -2.192964980558e-01
2.429912500000e-01 7.967387639972e-01 -2.193770327843e-01 2.032612360028e-01 2.193770327843e-01 2.032612360028e-01 2.193770327843e-01 7.967387639972e-01 -2.193770327843e-01
2.430650000000e-01 7.966907778194e-01 -2.194575450901e-01 2.033092221806e-01 2.194575450901e-01 2.033092221806e-01 2.194575450901e-01 7.966907778194e-01 -2.194575450901e-01
2.431387500000e-01 7.966427811442e-01 -2.195380349803e-01 2.033572188558e-01 2.195380349803e-01 2.033572188558e-01 2.195380349803e-01 7.966427811442e-01 -2.195380349803e-01
2.432125000000e-01 7.965947739780e-01 -2.196185024617e-01 2.034052260220e-01 2.196185024617e-01 2.034052260220e-01 2.196185024617e-01 7.965947739780e-01 -2.196185024617e-01
2.432862500000e-01 7.965467563271e-01 -2.196989475416e-01 2.034532436729e-01 2.196989475416e-01 2.034532436729e-01 2.196989475416e-01 7.965467563271e-01 -2.196989475416e-01
2.433600000000e-01 7.964987281979e-01 -2.197793702268e-01 2.035012718021e-01 2.197793702268e-01 2.035012718021e-01 2.197793702268e-01 7.964987281979e-01 -2.197793702268e-01
2.434337500000e-01 7.964506895970e-01 -2.198597705245e-01 2.035493104030e-01 2.198597705245e-01 2.035493104030e-01 2.198597705245e-01 7.964506895970e-01 -2.198597705245e-01
2.435075000000e-01 7.964026405305e-01 -2.199401484415e-01 2.035973594695e-01 2.199401484415e-01 2.035973594695e-01 2.199401484415e-01 7.964026405305e-01 -2.199401484415e-01
2.435812500000e-01 7.963545810049e-01 -2.200205039850e-01 2.036454189951e-01 2.200205039850e-01 2.036454189951e-01 2.200205039850e-01 7.963545810049e-01 -2.200205039850e-01
2.436550000000e-01 7.963065110267e-01 -2.201008371619e-01 2.036934889733e-01 2.201008371619e-01 2.036934889733e-01 2.201008371619e-01 7.963065110267e-01 -2.201008371619e-01
2.437287500000e-01 7.962584306021e-01 -2.201811479792e-01 2.037415693979e-01 2.201811479792e-01 2.037415693979e-01 2.201811479792e-01 7.962584306021e-01 -2.201811479792e-01
2.438025000000e-01 7.962103397376e-01 -2.202614364438e-01 2.037896602624e-01 2.202614364438e-01 2.037896602624e-01 2.202614364438e-01 7.962103397376e-01 -2.202614364438e-01
2.438762500000e-01 7.961622384396e-01 -2.203417025627e-01 2.038377615604e-01 2.203417025627e-01 2.038377615604e-01 2.203417025627e-01 7.961622384396e-01 -2.203417025627e-01
2.439500000000e-01 7.961141267143e-01 -2.204219463429e-01 2.038858732857e-01 2.204219463429e-01 2.038858732857e-01 2.204219463429e-01 7.961141267143e-01 -2.204219463429e-01
2.440237500000e-01 7.960660045682e-01 -2.205021677913e-01 2.039339954318e-01 2.205021677913e-01 2.039339954318e-01 2.205021677913e-01 7.960660045682e-01 -2.205021677913e-01
2.440975000000e-01 7.960178720077e-01 -2.205823669149e-01 2.039821279923e-01 2.205823669149e-01 2.039821279923e-01 2.205823669149e-01 7.960178720077e-01 -2.205823669149e-01
2.441712500000e-01 7.959697290391e-01 -2.206625437206e-01 2.040302709609e-01 2.206625437206e-01 2.040302709609e-01 2.206625437206e-01 7.959697290391e-01 -2.206625437206e-01
2.442450000000e-01 7.959215756687e-01 -2.207426982153e-01 2.040784243313e-01 2.207426982153e-01 2.040784243313e-01 2.207426982153e-01 7.959215756687e-01 -2.207426982153e-01
2.443187500000e-01 7.958734119029e-01 -2.208228304060e-01 2.041265880971e-01 2.208228304060e-01 2.041265880971e-01 2.208228304060e-01 7.958734119029e-01 -2.208228304060e-01
2.443925000000e-01 7.958252377481e-01 -2.209029402995e-01 2.041747622519e-01 2.209029402995e-01 2.041747622519e-01 2.209029402995e-01 7.958252377481e-01 -2.209029402995e-01
2.444662500000e-01 7.957770532106e-01 -2.209830279028e-01 2.042229467894e-01 2.209830279028e-01 2.042229467894e-01 2.209830279028e-01 7.957770532106e-01 -2.209830279028e-01
2.445400000000e-01 7.957288582968e-01 -2.210630932227e-01 2.042711417032e-01 2.210630932227e-01 2.042711417032e-01 2.210630932227e-01 7.957288582968e-01 -2.210630932227e-01
2.446137500000e-01 7.956806530131e-01 -2.211431362661e-01 2.043193469869e-01 2.211431362661e-01 2.043193469869e-01 2.211431362661e-01 7.956806530131e-01 -2.211431362661e-01
2.446875000000e-01 7.956324373656e-01 -2.212231570400e-01 2.043675626344e-01 2.212231570400e-01 2.043675626344e-01 2.212231570400e-01 7.956324373656e-01 -2.212231570400e-01
2.447612500000e-01 7.955842113609e-01 -2.213031555511e-01 2.044157886391e-01 2.213031555511e-01 2.044157886391e-01 2.213031555511e-01 7.955842113609e-01 -2.213031555511e-01
2.448350000000e-01 7.955359750052e-01 -2.213831318064e-01 2.044640249948e-01 2.213831318064e-01 2.044640249948e-01 2.213831318064e-01 7.955359750052e-01 -2.213831318064e-01
2.449087500000e-01 7.954877283049e-01 -2.214630858127e-01 2.045122716951e-01 2.214630858127e-01 2.045122716951e-01 2.214630858127e-01 7.954877283049e-01 -2.214630858127e-01
2.449825000000e-01 7.954394712663e-01 -2.215430175768e-01 2.045605287337e-01 2.215430175768e-01 2.045605287337e-01 2.215430175768e-01 7.954394712663e-01 -2.215430175768e-01
2.450562500000e-01 7.953912038956e-01 -2.216229271056e-01 2.046087961044e-01 2.216229271056e-01 2.046087961044e-01 2.216229271056e-01 7.953912038956e-01 -2.216229271056e-01
2.451300000000e-01 7.953429261994e-01 -2.217028144059e-01 2.046570738006e-01 2.217028144059e-01 2.046570738006e-01 2.217028144059e-01 7.953429261994e-01 -2.217028144059e-01
2.452037500000e-01 7.952946381838e-01 -2.217826794846e-01 2.047053618162e-01 2.217826794846e-01 2.047053618162e-01 2.217826794846e-01 7.952946381838e-01 -2.217826794846e-01
2.452775000000e-01 7.952463398552e-01 -2.218625223484e-01 2.047536601448e-01 2.218625223484e-01 2.047536601448e-01 2.218625223484e-01 7.952463398552e-01 -2.218625223484e-01
2.453512500000e-01 7.951980312199e-01 -2.219423430042e-01 2.048019687801e-01 2.219423430042e-01 2.048019687801e-01 2.219423430042e-01 7.951980312199e-01 -2.219423430042e-01
2.454250000000e-01 7.951497122842e-01 -2.220221414588e-01 2.048502877158e-01 2.220221414588e-01 2.048502877158e-01 2.220221414588e-01 7.951497122842e-01 -2.220221414588e-01
2.454987500000e-01 7.951013830545e-01 -2.221019177189e-01 2.048986169455e-01 2.221019177189e-01 2.048986169455e-01 2.221019177189e-01 7.951013830545e-01 -2.221019177189e-01
2.455725000000e-01 7.950530435369e-01 -2.221816717914e-01 2.049469564631e-01 2.221816717914e-01 2.049469564631e-01 2.221816717914e-01 7.950530435369e-01 -2.221816717914e-01
2.456462500000e-01 7.950046937380e-01 -2.222614036830e-01 2.049953062620e-01 2.222614036830e-01 2.049953062620e-01 2.222614036830e-01 7.950046937380e-01 -2.222614036830e-01
2.457200000000e-01 7.949563336638e-01 -2.223411134005e-01 2.050436663362e-01 2.223411134005e-01 2.050436663362e-01 2.223411134005e-01 7.949563336638e-01 -2.223411134005e-01
2.457937500000e-01 7.949079633208e-01 -2.224208009507e-01 2.050920366792e-01 2.224208009507e-01 2.050920366792e-01 2.224208009507e-01 7.949079633208e-01 -2.224208009507e-01
2.458675000000e-01 7.948595827153e-01 -2.225004663403e-01 2.051404172847e-01 2.225004663403e-01 2.051404172847e-01 2.225004663403e-01 7.948595827153e-01 -2.225004663403e-01
2.459412500000e-01 7.948111918535e-01 -2.225801095760e-01 2.051888081465e-01 2.225801095760e-01 2.051888081465e-01 2.225801095760e-01 7.948111918535e-01 -2.225801095760e-01
2.460150000000e-01 7.947627907416e-01 -2.226597306647e-01 2.052372092584e-01 2.226597306647e-01 2.052372092584e-01 2.226597306647e-01 7.947627907416e-01 -2.226597306647e-01
2.460887500000e-01 7.947143793861e-01 -2.227393296130e-01 2.052856206139e-01 2.227393296130e-01 2.052856206139e-01 2.227393296130e-01 7.947143793861e-01 -2.227393296130e-01
2.461625000000e-01 7.946659577932e-01 -2.228189064277e-01 2.053340422068e-01 2.228189064277e-01 2.053340422068e-01 2.228189064277e-01 7.946659577932e-01 -2.228189064277e-01
2.462362500000e-01 7.946175259692e-01 -2.228984611154e-01 2.053824740308e-01 2.228984611154e-01 2.053824740308e-01 2.228984611154e-01 7.946175259692e-01 -2.228984611154e-01
2.463100000000e-01 7.945690839203e-01 -2.229779936830e-01 2.054309160797e-01 2.229779936830e-01 2.054309160797e-01 2.229779936830e-01 7.945690839203e-01 -2.229779936830e-01
2.463837500000e-01 7.945206316528e-01 -2.230575041370e-01 2.054793683472e-01 2.230575041370e-01 2.054793683472e-01 2.230575041370e-01 7.945206316528e-01 -2.230575041370e-01
2.464575000000e-01 7.944721691731e-01 -2.231369924842e-01 2.055278308269e-01 2.231369924842e-01 2.055278308269e-01 2.231369924842e-01 7.944721691731e-01 -2.231369924842e-01
2.465312500000e-01 7.944236964873e-01 -2.232164587314e-01 2.055763035127e-01 2.232164587314e-01 2.055763035127e-01 2.232164587314e-01 7.944236964873e-01 -2.232164587314e-01
2.466050000000e-01 7.943752136017e-01 -2.232959028850e-01 2.056247863983e-01 2.232959028850e-01 2.056247863983e-01 2.232959028850e-01 7.943752136017e-01 -2.232959028850e-01
2.466787500000e-01 7.943267205227e-01 -2.233753249520e-01 2.056732794773e-01 2.233753249520e-01 2.056732794773e-01 2.233753249520e-01 7.943267205227e-01 -2.233753249520e-01
2.467525000000e-01 7.942782172564e-01 -2.234547249388e-01 2.057217827436e-01 2.234547249388e-01 2.057217827436e-01 2.234547249388e-01 7.942782172564e-01 -2.234547249388e-01
2.468262500000e-01 7.942297038092e-01 -2.235341028522e-01 2.057702961908e-01 2.235341028522e-01 2.057702961908e-01 2.235341028522e-01 7.942297038092e-01 -2.235341028522e-01
2.469000000000e-01 7.941811801872e-01 -2.236134586988e-01 2.058188198128e-01 2.236134586988e-01 2.058188198128e-01 2.236134586988e-01 7.941811801872e-01 -2.236134586988e-01
2.469737500000e-01 7.941326463967e-01 -2.236927924852e-01 2.058673536033e-01 2.236927924852e-01 2.058673536033e-01 2.236927924852e-01 7.941326463967e-01 -2.236927924852e-01
2.470475000000e-01 7.940841024441e-01 -2.237721042181e-01 2.059158975559e-01 2.237721042181e-01 2.059158975559e-01 2.237721042181e-01 7.940841024441e-01 -2.237721042181e-01
2.471212500000e-01 7.940355483355e-01 -2.238513939042e-01 2.059644516645e-01 2.238513939042e-01 2.059644516645e-01 2.238513939042e-01 7.940355483355e-01 -2.238513939042e-01
2.471950000000e-01 7.939869840771e-01 -2.239306615500e-01 2.060130159229e-01 2.239306615500e-01 2.060130159229e-01 2.239306615500e-01 7.939869840771e-01 -2.239306615500e-01
2.472687500000e-01 7.939384096753e-01 -2.240099071621e-01 2.060615903247e-01 2.240099071621e-01 2.060615903247e-01 2.240099071621e-01 7.939384096753e-01 -2.240099071621e-01
2.473425000000e-01 7.938898251362e-01 -2.240891307473e-01 2.061101748638e-01 2.240891307473e-01 2.061101748638e-01 2.240891307473e-01 7.938898251362e-01 -2.240891307473e-01
2.474162500000e-01 7.938412304662e-01 -2.241683323120e-01 2.061587695338e-01 2.241683323120e-01 2.061587695338e-01 2.241683323120e-01 7.938412304662e-01 -2.241683323120e-01
2.474900000000e-01 7.937926256713e-01 -2.242475118628e-01 2.062073743287e-01 2.242475118628e-01 2.062073743287e-01 2.242475118628e-01 7.937926256713e-01 -2.242475118628e-01
2.475637500000e-01 7.937440107580e-01 -2.243266694064e-01 2.062559892420e-01 2.243266694064e-01 2.062559892420e-01 2.243266694064e-01 7.937440107580e-01 -2.243266694064e-01
2.476375000000e-01 7.936953857323e-01 -2.244058049493e-01 2.063046142677e-01 2.244058049493e-01 2.063046142677e-01 2.244058049493e-01 7.936953857323e-01 -2.244058049493e-01
2.477112500000e-01 7.936467506005e-01 -2.244849184981e-01 2.063532493995e-01 2.244849184981e-01 2.063532493995e-01 2.244849184981e-01 7.936467506005e-01 -2.244849184981e-01
2.477850000000e-01 7.935981053689e-01 -2.245640100593e-01 2.064018946311e-01 2.245640100593e-01 2.064018946311e-01 2.245640100593e-01 7.935981053689e-01 -2.245640100593e-01
2.478587500000e-01 7.935494500437e-01 -2.246430796396e-01 2.064505499563e-01 2.246430796396e-01 2.064505499563e-01 2.246430796396e-01 7.935494500437e-01 -2.246430796396e-01
2.479325000000e-01 7.935007846310e-01 -2.247221272454e-01 2.064992153690e-01 2.247221272454e-01 2.064992153690e-01 2.247221272454e-01 7.935007846310e-01 -2.247221272454e-01
2.480062500000e-01 7.934521091371e-01 -2.248011528834e-01 2.065478908629e-01 2.248011528834e-01 2.065478908629e-01 2.248011528834e-01 7.934521091371e-01 -2.248011528834e-01
2.480800000000e-01 7.934034235682e-01 -2.248801565599e-01 2.065965764318e-01 2.248801565599e-01 2.065965764318e-01 2.248801565599e-01 7.934034235682e-01 -2.248801565599e-01
2.481537500000e-01 7.933547279306e-01 -2.249591382817e-01 2.066452720694e-01 2.249591382817e-01 2.066452720694e-01 2.249591382817e-01 7.933547279306e-01 -2.249591382817e-01
2.482275000000e-01 7.933060222303e-01 -2.250380980551e-01 2.066939777697e-01 2.250380980551e-01 2.066939777697e-01 2.250380980551e-01 7.933060222303e-01 -2.250380980551e-01
2.483012500000e-01 7.932573064737e-01 -2.251170358867e-01 2.067426935263e-01 2.251170358867e-01 2.067426935263e-01 2.251170358867e-01 7.932573064737e-01 -2.251170358867e-01
2.483750000000e-01 7.932085806669e-01 -2.251959517830e-01 2.067914193331e-01 2.251959517830e-01 2.067914193331e-01 2.251959517830e-01 7.932085806669e-01 -2.251959517830e-01
2.484487500000e-01 7.931598448161e-01 -2.252748457505e-01 2.068401551839e-01 2.252748457505e-01 2.068401551839e-01 2.252748457505e-01 7.931598448161e-01 -2.252748457505e-01
2.485225000000e-01 7.931110989276e-01 -2.253537177958e-01 2.068889010724e-01 2.253537177958e-01 2.068889010724e-01 2.253537177958e-01 7.931110989276e-01 -2.253537177958e-01
2.485962500000e-01 7.930623430075e-01 -2.254325679252e-01 2.069376569925e-01 2.254325679252e-01 2.069376569925e-01 2.254325679252e-01 7.930623430075e-01 -2.254325679252e-01
2.486700000000e-01 7.930135770619e-01 -2.255113961452e-01 2.069864229381e-01 2.255113961452e-01 2.069864229381e-01 2.255113961452e-01 7.930135770619e-01 -2.255113961452e-01
2.487437500000e-01 7.929648010972e-01 -2.255902024624e-01 2.070351989028e-01 2.255902024624e-01 2.070351989028e-01 2.255902024624e-01 7.929648010972e-01 -2.255902024624e-01
2.488175000000e-01 7.929160151195e-01 -2.256689868832e-01 2.070839848805e-01 2.256689868832e-01 2.070839848805e-01 2.256689868832e-01 7.929160151195e-01 -2.256689868832e-01
2.488912500000e-01 7.928672191349e-01 -2.257477494141e-01 2.071327808651e-01 2.257477494141e-01 2.071327808651e-01 2.257477494141e-01 7.928672191349e-01 -2.257477494141e-01
2.489650000000e-01 7.928184131496e-01 -2.258264900614e-01 2.071815868504e-01 2.258264900614e-01 2.071815868504e-01 2.258264900614e-01 7.928184131496e-01 -2.258264900614e-01
2.490387500000e-01 7.927695971699e-01 -2.259052088317e-01 2.072304028301e-01 2.259052088317e-01 2.072304028301e-01 2.259052088317e-01 7.927695971699e-01 -2.259052088317e-01
2.491125000000e-01 7.927207712018e-01 -2.259839057314e-01 2.072792287982e-01 2.259839057314e-01 2.072792287982e-01 2.259839057314e-01 7.927207712018e-01 -2.259839057314e-01
2.491862500000e-01 7.926719352516e-01 -2.260625807669e-01 2.073280647484e-01 2.260625807669e-01 2.073280647484e-01 2.260625807669e-01 7.926719352516e-01 -2.260625807669e-01
2.492600000000e-01 7.926230893255e-01 -2.261412339446e-01 2.073769106745e-01 2.261412339446e-01 2.073769106745e-01 2.261412339446e-01 7.926230893255e-01 -2.261412339446e-01
2.493337500000e-01 7.925742334295e-01 -2.262198652709e-01 2.074257665705e-01 2.262198652709e-01 2.074257665705e-01 2.262198652709e-01 7.925742334295e-01 -2.262198652709e-01
2.494075000000e-01 7.925253675699e-01 -2.262984747523e-01 2.074746324301e-01 2.262984747523e-01 2.074746324301e-01 2.262984747523e-01 7.925253675699e-01 -2.262984747523e-01
2.494812500000e-01 7.924764917529e-01 -2.263770623952e-01 2.075235082471e-01 2.263770623952e-01 2.075235082471e-01 2.263770623952e-01 7.924764917529e-01 -2.263770623952e-01
2.495550000000e-01 7.924276059845e-01 -2.264556282059e-01 2.075723940155e-01 2.264556282059e-01 2.075723940155e-01 2.264556282059e-01 7.924276059845e-01 -2.264556282059e-01
2.496287500000e-01 7.923787102709e-01 -2.265341721909e-01 2.076212897291e-01 2.265341721909e-01 2.076212897291e-01 2.265341721909e-01 7.923787102709e-01 -2.265341721909e-01
2.497025000000e-01 7.923298046183e-01 -2.266126943564e-01 2.076701953817e-01 2.266126943564e-01 2.076701953817e-01 2.266126943564e-01 7.923298046183e-01 -2.266126943564e-01
2.497762500000e-01 7.922808890329e-01 -2.266911947090e-01 2.077191109671e-01 2.266911947090e-01 2.077191109671e-01 2.266911947090e-01 7.922808890329e-01 -2.266911947090e-01
2.498500000000e-01 7.922319635208e-01 -2.267696732549e-01 2.077680364792e-01 2.267696732549e-01 2.077680364792e-01 2.267696732549e-01 7.922319635208e-01 -2.267696732549e-01
2.499237500000e-01 7.921830280880e-01 -2.268481300005e-01 2.078169719120e-01 2.268481300005e-01 2.078169719120e-01 2.268481300005e-01 7.921830280880e-01 -2.268481300005e-01
2.499975000000e-01 7.921340827409e-01 -2.269265649522e-01 2.078659172591e-01 2.269265649522e-01 2.078659172591e-01 2.269265649522e-01 7.921340827409e-01 -2.269265649522e-01
2.500712500000e-01 7.920851274855e-01 -2.270049781163e-01 2.079148725145e-01 2.270049781163e-01 2.079148725145e-01 2.270049781163e-01 7.920851274855e-01 -2.270049781163e-01
2.501450000000e-01 7.920361623279e-01 -2.270833694992e-01 2.079638376721e-01 2.270833694992e-01 2.079638376721e-01 2.270833694992e-01 7.920361623279e-01 -2.270833694992e-01
2.502187500000e-01 7.919871872743e-01 -2.271617391071e-01 2.080128127257e-01 2.271617391071e-01 2.080128127257e-01 2.271617391071e-01 7.919871872743e-01 -2.271617391071e-01
2.502925000000e-01 7.919382023308e-01 -2.272400869465e-01 2.080617976692e-01 2.272400869465e-01 2.080617976692e-01 2.272400869465e-01 7.919382023308e-01 -2.272400869465e-01
2.503662500000e-01 7.918892075036e-01 -2.273184130236e-01 2.081107924964e-01 2.273184130236e-01 2.081107924964e-01 2.273184130236e-01 7.918892075036e-01 -2.273184130236e-01
2.504400000000e-01 7.918402027987e-01 -2.273967173447e-01 2.081597972013e-01 2.273967173447e-01 2.081597972013e-01 2.273967173447e-01 7.918402027987e-01 -2.273967173447e-01
2.505137500000e-01 7.917911882224e-01 -2.274749999162e-01 2.082088117776e-01 2.274749999162e-01 2.082088117776e-01 2.274749999162e-01 7.917911882224e-01 -2.274749999162e-01
2.505875000000e-01 7.917421637806e-01 -2.275532607443e-01 2.082578362194e-01 2.275532607443e-01 2.082578362194e-01 2.275532607443e-01 7.917421637806e-01 -2.275532607443e-01
2.506612500000e-01 7.916931294796e-01 -2.276314998353e-01 2.083068705204e-01 2.276314998353e-01 2.083068705204e-01 2.276314998353e-01 7.916931294796e-01 -2.276314998353e-01
2.507350000000e-01 7.916440853255e-01 -2.277097171956e-01 2.083559146745e-01 2.277097171956e-01 2.083559146745e-01 2.277097171956e-01 7.916440853255e-01 -2.277097171956e-01
2.508087500000e-01 7.915950313243e-01 -2.277879128314e-01 2.084049686757e-01 2.277879128314e-01 2.084049686757e-01 2.277879128314e-01 7.915950313243e-01 -2.277879128314e-01
2.508825000000e-01 7.915459674822e-01 -2.278660867489e-01 2.084540325178e-01 2.278660867489e-01 2.084540325178e-01 2.278660867489e-01 7.915459674822e-01 -2.278660867489e-01
2.509562500000e-01 7.914968938053e-01 -2.279442389545e-01 2.085031061947e-01 2.279442389545e-01 2.085031061947e-01 2.279442389545e-01 7.914968938053e-01 -2.279442389545e-01
2.510300000000e-01 7.914478102996e-01 -2.280223694544e-01 2.085521897004e-01 2.280223694544e-01 2.085521897004e-01 2.280223694544e-01 7.914478102996e-01 -2.280223694544e-01
2.511037500000e-01 7.913987169714e-01 -2.281004782548e-01 2.086012830286e-01 2.281004782548e-01 2.086012830286e-01 2.281004782548e-01 7.913987169714e-01 -2.281004782548e-01
2.511775000000e-01 7.913496138266e-01 -2.281785653621e-01 2.086503861734e-01 2.281785653621e-01 2.086503861734e-01 2.281785653621e-01 7.913496138266e-01 -2.281785653621e-01
2.512512500000e-01 7.913005008715e-01 -2.282566307823e-01 2.086994991285e-01 2.282566307823e-01 2.086994991285e-01 2.282566307823e-01 7.913005008715e-01 -2.282566307823e-01
2.513250000000e-01 7.912513781120e-01 -2.283346745218e-01 2.087486218880e-01 2.283346745218e-01 2.087486218880e-01 2.283346745218e-01 7.912513781120e-01 -2.283346745218e-01
2.513987500000e-01 7.912022455543e-01 -2.284126965868e-01 2.087977544457e-01 2.284126965868e-01 2.087977544457e-01 2.284126965868e-01 7.912022455543e-01 -2.284126965868e-01
2.514725000000e-01 7.911531032045e-01 -2.284906969835e-01 2.088468967955e-01 2.284906969835e-01 2.088468967955e-01 2.284906969835e-01 7.911531032045e-01 -2.284906969835e-01
2.515462500000e-01 7.911039510687e-01 -2.285686757181e-01 2.088960489313e-01 2.285686757181e-01 2.088960489313e-01 2.285686757181e-01 7.911039510687e-01 -2.285686757181e-01
2.516200000000e-01 7.910547891529e-01 -2.286466327968e-01 2.089452108471e-01 2.286466327968e-01 2.089452108471e-01 2.286466327968e-01 7.910547891529e-01 -2.286466327968e-01
2.516937500000e-01 7.910056174632e-01 -2.287245682259e-01 2.089943825368e-01 2.287245682259e-01 2.089943825368e-01 2.287245682259e-01 7.910056174632e-01 -2.287245682259e-01
2.517675000000e-01 7.909564360057e-01 -2.288024820114e-01 2.090435639943e-01 2.288024820114e-01 2.090435639943e-01 2.288024820114e-01 7.909564360057e-01 -2.288024820114e-01
2.518412500000e-01 7.909072447865e-01 -2.288803741597e-01 2.090927552135e-01 2.288803741597e-01 2.090927552135e-01 2.288803741597e-01 7.909072447865e-01 -2.288803741597e-01
2.519150000000e-01 7.908580438117e-01 -2.289582446768e-01 2.091419561883e-01 2.289582446768e-01 2.091419561883e-01 2.289582446768e-01 7.908580438117e-01 -2.289582446768e-01
2.519887500000e-01 7.908088330873e-01 -2.290360935690e-01 2.091911669127e-01 2.290360935690e-01 2.091911669127e-01 2.290360935690e-01 7.908088330873e-01 -2.290360935690e-01
2.520625000000e-01 7.907596126194e-01 -2.291139208424e-01 2.092403873806e-01 2.291139208424e-01 2.092403873806e-01 2.291139208424e-01 7.907596126194e-01 -2.291139208424e-01
2.521362500000e-01 7.907103824141e-01 -2.291917265032e-01 2.092896175859e-01 2.291917265032e-01 2.092896175859e-01 2.291917265032e-01 7.907103824141e-01 -2.291917265032e-01
2.522100000000e-01 7.906611424774e-01 -2.292695105575e-01 2.093388575226e-01 2.292695105575e-01 2.093388575226e-01 2.292695105575e-01 7.906611424774e-01 -2.292695105575e-01
2.522837500000e-01 7.906118928154e-01 -2.293472730114e-01 2.093881071846e-01 2.293472730114e-01 2.093881071846e-01 2.293472730114e-01 7.906118928154e-01 -2.293472730114e-01
2.523575000000e-01 7.905626334341e-01 -2.294250138712e-01 2.094373665659e-01 2.294250138712e-01 2.094373665659e-01 2.294250138712e-01 7.905626334341e-01 -2.294250138712e-01
2.524312500000e-01 7.905133643397e-01 -2.295027331429e-01 2.094866356603e-01 2.295027331429e-01 2.094866356603e-01 2.295027331429e-01 7.905133643397e-01 -2.295027331429e-01
2.525050000000e-01 7.904640855382e-01 -2.295804308327e-01 2.095359144618e-01 2.295804308327e-01 2.095359144618e-01 2.295804308327e-01 7.904640855382e-01 -2.295804308327e-01
2.525787500000e-01 7.904147970355e-01 -2.296581069467e-01 2.095852029645e-01 2.296581069467e-01 2.095852029645e-01 2.296581069467e-01 7.904147970355e-01 -2.296581069467e-01
2.526525000000e-01 7.903654988378e-01 -2.297357614909e-01 2.096345011622e-01 2.297357614909e-01 2.096345011622e-01 2.297357614909e-01 7.903654988378e-01 -2.297357614909e-01
2.527262500000e-01 7.903161909512e-01 -2.298133944716e-01 2.096838090488e-01 2.298133944716e-01 2.096838090488e-01 2.298133944716e-01 7.903161909512e-01 -2.298133944716e-01
2.528000000000e-01 7.902668733816e-01 -2.298910058948e-01 2.097331266184e-01 2.298910058948e-01 2.097331266184e-01 2.298910058948e-01 7.902668733816e-01 -2.298910058948e-01
2.528737500000e-01 7.902175461351e-01 -2.299685957667e-01 2.097824538649e-01 2.299685957667e-01 2.097824538649e-01 2.299685957667e-01 7.902175461351e-01 -2.299685957667e-01
2.529475000000e-01 7.901682092177e-01 -2.300461640932e-01 2.098317907823e-01 2.300461640932e-01 2.098317907823e-01 2.300461640932e-01 7.901682092177e-01 -2.300461640932e-01
2.530212500000e-01 7.901188626356e-01 -2.301237108805e-01 2.098811373644e-01 2.301237108805e-01 2.098811373644e-01 2.301237108805e-01 7.901188626356e-01 -2.301237108805e-01
2.530950000000e-01 7.900695063946e-01 -2.302012361346e-01 2.099304936054e-01 2.302012361346e-01 2.099304936054e-01 2.302012361346e-01 7.900695063946e-01 -2.302012361346e-01
2.531687500000e-01 7.900201405009e-01 -2.302787398617e-01 2.099798594991e-01 2.302787398617e-01 2.099798594991e-01 2.302787398617e-01 7.900201405009e-01 -2.302787398617e-01
2.532425000000e-01 7.899707649604e-01 -2.303562220678e-01 2.100292350396e-01 2.303562220678e-01 2.100292350396e-01 2.303562220678e-01 7.899707649604e-01 -2.303562220678e-01
2.533162500000e-01 7.899213797793e-01 -2.304336827589e-01 2.100786202207e-01 2.304336827589e-01 2.100786202207e-01 2.304336827589e-01 7.899213797793e-01 -2.304336827589e-01
2.533900000000e-01 7.898719849635e-01 -2.305111219411e-01 2.101280150365e-01 2.305111219411e-01 2.101280150365e-01 2.305111219411e-01 7.898719849635e-01 -2.305111219411e-01
2.534637500000e-01 7.898225805190e-01 -2.305885396204e-01 2.101774194810e-01 2.305885396204e-01 2.101774194810e-01 2.305885396204e-01 7.898225805190e-01 -2.305885396204e-01
2.535375000000e-01 7.897731664519e-01 -2.306659358030e-01 2.102268335481e-01 2.306659358030e-01 2.102268335481e-01 2.306659358030e-01 7.897731664519e-01 -2.306659358030e-01
2.536112500000e-01 7.897237427682e-01 -2.307433104947e-01 2.102762572318e-01 2.307433104947e-01 2.102762572318e-01 2.307433104947e-01 7.897237427682e-01 -2.307433104947e-01
2.536850000000e-01 7.896743094739e-01 -2.308206637017e-01 2.103256905261e-01 2.308206637017e-01 2.103256905261e-01 2.308206637017e-01 7.896743094739e-01 -2.308206637017e-01
2.537587500000e-01 7.896248665750e-01 -2.308979954299e-01 2.103751334250e-01 2.308979954299e-01 2.103751334250e-01 2.308979954299e-01 7.896248665750e-01 -2.308979954299e-01
2.538325000000e-01 7.895754140776e-01 -2.309753056854e-01 2.104245859224e-01 2.309753056854e-01 2.104245859224e-01 2.309753056854e-01 7.895754140776e-01 -2.309753056854e-01
2.539062500000e-01 7.895259519875e-01 -2.310525944741e-01 2.104740480125e-01 2.310525944741e-01 2.104740480125e-01 2.310525944741e-01 7.895259519875e-01 -2.310525944741e-01
2.539800000000e-01 7.894764803109e-01 -2.311298618021e-01 2.105235196891e-01 2.311298618021e-01 2.105235196891e-01 2.311298618021e-01 7.894764803109e-01 -2.311298618021e-01
2.540537500000e-01 7.894269990538e-01 -2.312071076754e-01 2.105730009462e-01 2.312071076754e-01 2.105730009462e-01 2.312071076754e-01 7.894269990538e-01 -2.312071076754e-01
2.541275000000e-01 7.893775082220e-01 -2.312843321000e-01 2.106224917780e-01 2.312843321000e-01 2.106224917780e-01 2.312843321000e-01 7.893775082220e-01 -2.312843321000e-01
2.542012500000e-01 7.893280078217e-01 -2.313615350817e-01 2.106719921783e-01 2.313615350817e-01 2.106719921783e-01 2.313615350817e-01 7.893280078217e-01 -2.313615350817e-01
2.542750000000e-01 7.892784978589e-01 -2.314387166267e-01 2.107215021411e-01 2.314387166267e-01 2.107215021411e-01 2.314387166267e-01 7.892784978589e-01 -2.314387166267e-01
2.543487500000e-01 7.892289783394e-01 -2.315158767409e-01 2.107710216606e-01 2.315158767409e-01 2.107710216606e-01 2.315158767409e-01 7.892289783394e-01 -2.315158767409e-01
2.544225000000e-01 7.891794492694e-01 -2.315930154302e-01 2.108205507306e-01 2.315930154302e-01 2.108205507306e-01 2.315930154302e-01 7.891794492694e-01 -2.315930154302e-01
2.544962500000e-01 7.891299106547e-01 -2.316701327006e-01 2.108700893453e-01 2.316701327006e-01 2.108700893453e-01 2.316701327006e-01 7.891299106547e-01 -2.316701327006e-01
2.545700000000e-01 7.890803625015e-01 -2.317472285581e-01 2.109196374985e-01 2.317472285581e-01 2.109196374985e-01 2.317472285581e-01 7.890803625015e-01 -2.317472285581e-01
2.546437500000e-01 7.890308048156e-01 -2.318243030086e-01 2.109691951844e-01 2.318243030086e-01 2.109691951844e-01 2.318243030086e-01 7.890308048156e-01 -2.318243030086e-01
2.547175000000e-01 7.889812376031e-01 -2.319013560580e-01 2.110187623969e-01 2.319013560580e-01 2.110187623969e-01 2.319013560580e-01 7.889812376031e-01 -2.319013560580e-01
2.547912500000e-01 7.889316608699e-01 -2.319783877122e-01 2.110683391301e-01 2.319783877122e-01 2.110683391301e-01 2.319783877122e-01 7.889316608699e-01 -2.319783877122e-01
2.548650000000e-01 7.888820746220e-01 -2.320553979773e-01 2.111179253780e-01 2.320553979773e-01 2.111179253780e-01 2.320553979773e-01 7.888820746220e-01 -2.320553979773e-01
2.549387500000e-01 7.888324788654e-01 -2.321323868590e-01 2.111675211346e-01 2.321323868590e-01 2.111675211346e-01 2.321323868590e-01 7.888324788654e-01 -2.321323868590e-01
2.550125000000e-01 7.887828736060e-01 -2.322093543634e-01 2.112171263940e-01 2.322093543634e-01 2.112171263940e-01 2.322093543634e-01 7.887828736060e-01 -2.322093543634e-01
2.550862500000e-01 7.887332588498e-01 -2.322863004964e-01 2.112667411502e-01 2.322863004964e-01 2.112667411502e-01 2.322863004964e-01 7.887332588498e-01 -2.322863004964e-01
2.551600000000e-01 7.886836346028e-01 -2.323632252637e-01 2.113163653972e-01 2.323632252637e-01 2.113163653972e-01 2.323632252637e-01 7.886836346028e-01 -2.323632252637e-01
2.552337500000e-01 7.886340008710e-01 -2.324401286714e-01 2.113659991290e-01 2.324401286714e-01 2.113659991290e-01 2.324401286714e-01 7.886340008710e-01 -2.324401286714e-01
2.553075000000e-01 7.885843576602e-01 -2.325170107254e-01 2.114156423398e-01 2.325170107254e-01 2.114156423398e-01 2.325170107254e-01 7.885843576602e-01 -2.325170107254e-01
2.553812500000e-01 7.885347049766e-01 -2.325938714314e-01 2.114652950234e-01 2.325938714314e-01 2.114652950234e-01 2.325938714314e-01 7.885347049766e-01 -2.325938714314e-01
2.554550000000e-01 7.884850428259e-01 -2.326707107954e-01 2.115149571741e-01 2.326707107954e-01 2.115149571741e-01 2.326707107954e-01 7.884850428259e-01 -2.326707107954e-01
2.555287500000e-01 7.884353712142e-01 -2.327475288233e-01 2.115646287858e-01 2.327475288233e-01 2.115646287858e-01 2.327475288233e-01 7.884353712142e-01 -2.327475288233e-01
2.556025000000e-01 7.883856901475e-01 -2.328243255209e-01 2.116143098525e-01 2.328243255209e-01 2.116143098525e-01 2.328243255209e-01 7.883856901475e-01 -2.328243255209e-01
2.556762500000e-01 7.883359996316e-01 -2.329011008941e-01 2.116640003684e-01 2.329011008941e-01 2.116640003684e-01 2.329011008941e-01 7.883359996316e-01 -2.329011008941e-01
2.557500000000e-01 7.882862996725e-01 -2.329778549487e-01 2.117137003275e-01 2.329778549487e-01 2.117137003275e-01 2.329778549487e-01 7.882862996725e-01 -2.329778549487e-01
2.558237500000e-01 7.882365902762e-01 -2.330545876906e-01 2.117634097238e-01 2.330545876906e-01 2.117634097238e-01 2.330545876906e-01 7.882365902762e-01 -2.330545876906e-01
2.558975000000e-01 7.881868714486e-01 -2.331312991256e-01 2.118131285514e-01 2.331312991256e-01 2.118131285514e-01 2.331312991256e-01 7.881868714486e-01 -2.331312991256e-01
2.559712500000e-01 7.881371431957e-01 -2.332079892596e-01 2.118628568043e-01 2.332079892596e-01 2.118628568043e-01 2.332079892596e-01 7.881371431957e-01 -2.332079892596e-01
2.560450000000e-01 7.880874055233e-01 -2.332846580984e-01 2.119125944767e-01 2.332846580984e-01 2.119125944767e-01 2.332846580984e-01 7.880874055233e-01 -2.332846580984e-01
2.561187500000e-01 7.880376584375e-01 -2.333613056478e-01 2.119623415625e-01 2.333613056478e-01 2.119623415625e-01 2.333613056478e-01 7.880376584375e-01 -2.333613056478e-01
2.561925000000e-01 7.879879019441e-01 -2.334379319137e-01 2.120120980559e-01 2.334379319137e-01 2.120120980559e-01 2.334379319137e-01 7.879879019441e-01 -2.334379319137e-01
2.562662500000e-01 7.879381360490e-01 -2.335145369018e-01 2.120618639510e-01 2.335145369018e-01 2.120618639510e-01 2.335145369018e-01 7.879381360490e-01 -2.335145369018e-01
2.563400000000e-01 7.878883607583e-01 -2.335911206179e-01 2.121116392417e-01 2.335911206179e-01 2.121116392417e-01 2.335911206179e-01 7.878883607583e-01 -2.335911206179e-01
2.564137500000e-01 7.878385760779e-01 -2.336676830679e-01 2.121614239221e-01 2.336676830679e-01 2.121614239221e-01 2.336676830679e-01 7.878385760779e-01 -2.336676830679e-01
2.564875000000e-01 7.877887820136e-01 -2.337442242576e-01 2.122112179864e-01 2.337442242576e-01 2.122112179864e-01 2.337442242576e-01 7.877887820136e-01 -2.337442242576e-01
2.565612500000e-01 7.877389785713e-01 -2.338207441927e-01 2.122610214287e-01 2.338207441927e-01 2.122610214287e-01 2.338207441927e-01 7.877389785713e-01 -2.338207441927e-01
2.566350000000e-01 7.876891657571e-01 -2.338972428790e-01 2.123108342429e-01 2.338972428790e-01 2.123108342429e-01 2.338972428790e-01 7.876891657571e-01 -2.338972428790e-01
2.567087500000e-01 7.876393435767e-01 -2.339737203224e-01 2.123606564233e-01 2.339737203224e-01 2.123606564233e-01 2.339737203224e-01 7.876393435767e-01 -2.339737203224e-01
2.567825000000e-01 7.875895120362e-01 -2.340501765285e-01 2.124104879638e-01 2.340501765285e-01 2.124104879638e-01 2.340501765285e-01 7.875895120362e-01 -2.340501765285e-01
2.568562500000e-01 7.875396711415e-01 -2.341266115031e-01 2.124603288585e-01 2.341266115031e-01 2.124603288585e-01 2.341266115031e-01 7.875396711415e-01 -2.341266115031e-01
2.569300000000e-01 7.874898208984e-01 -2.342030252520e-01 2.125101791016e-01 2.342030252520e-01 2.125101791016e-01 2.342030252520e-01 7.874898208984e-01 -2.342030252520e-01
2.570037500000e-01 7.874399613128e-01 -2.342794177810e-01 2.125600386872e-01 2.342794177810e-01 2.125600386872e-01 2.342794177810e-01 7.874399613128e-01 -2.342794177810e-01
2.570775000000e-01 7.873900923907e-01 -2.343557890958e-01 2.126099076093e-01 2.343557890958e-01 2.126099076093e-01 2.343557890958e-01 7.873900923907e-01 -2.343557890958e-01
2.571512500000e-01 7.873402141379e-01 -2.344321392022e-01 2.126597858621e-01 2.344321392022e-01 2.126597858621e-01 2.344321392022e-01 7.873402141379e-01 -2.344321392022e-01
2.572250000000e-01 7.872903265604e-01 -2.345084681058e-01 2.127096734396e-01 2.345084681058e-01 2.127096734396e-01 2.345084681058e-01 7.872903265604e-01 -2.345084681058e-01
2.572987500000e-01 7.872404296641e-01 -2.345847758124e-01 2.127595703359e-01 2.345847758124e-01 2.127595703359e-01 2.345847758124e-01 7.872404296641e-01 -2.345847758124e-01
2.573725000000e-01 7.871905234548e-01 -2.346610623278e-01 2.128094765452e-01 2.346610623278e-01 2.128094765452e-01 2.346610623278e-01 7.871905234548e-01 -2.346610623278e-01
2.574462500000e-01 7.871406079384e-01 -2.347373276576e-01 2.128593920616e-01 2.347373276576e-01 2.128593920616e-01 2.347373276576e-01 7.871406079384e-01 -2.347373276576e-01
2.575200000000e-01 7.870906831209e-01 -2.348135718076e-01 2.129093168791e-01 2.348135718076e-01 2.129093168791e-01 2.348135718076e-01 7.870906831209e-01 -2.348135718076e-01
2.575937500000e-01 7.870407490081e-01 -2.348897947835e-01 2.129592509919e-01 2.348897947835e-01 2.129592509919e-01 2.348897947835e-01 7.870407490081e-01 -2.348897947835e-01
2.576675000000e-01 7.869908056059e-01 -2.349659965909e-01 2.130091943941e-01 2.349659965909e-01 2.130091943941e-01 2.349659965909e-01 7.869908056059e-01 -2.349659965909e-01
2.577412500000e-01 7.869408529202e-01 -2.350421772357e-01 2.130591470798e-01 2.350421772357e-01 2.130591470798e-01 2.350421772357e-01 7.869408529202e-01 -2.350421772357e-01
2.578150000000e-01 7.868908909569e-01 -2.351183367234e-01 2.131091090431e-01 2.351183367234e-01 2.131091090431e-01 2.351183367234e-01 7.868908909569e-01 -2.351183367234e-01
2.578887500000e-01 7.868409197218e-01 -2.351944750597e-01 2.131590802782e-01 2.351944750597e-01 2.131590802782e-01 2.351944750597e-01 7.868409197218e-01 -2.351944750597e-01
2.579625000000e-01 7.867909392208e-01 -2.352705922504e-01 2.132090607792e-01 2.352705922504e-01 2.132090607792e-01 2.352705922504e-01 7.867909392208e-01 -2.352705922504e-01
2.580362500000e-01 7.867409494599e-01 -2.353466883011e-01 2.132590505401e-01 2.353466883011e-01 2.132590505401e-01 2.353466883011e-01 7.867409494599e-01 -2.353466883011e-01
2.581100000000e-01 7.866909504448e-01 -2.354227632175e-01 2.133090495552e-01 2.354227632175e-01 2.133090495552e-01 2.354227632175e-01 7.866909504448e-01 -2.354227632175e-01
2.581837500000e-01 7.866409421814e-01 -2.354988170052e-01 2.133590578186e-01 2.354988170052e-01 2.133590578186e-01 2.354988170052e-01 7.866409421814e-01 -2.354988170052e-01
2.582575000000e-01 7.865909246757e-01 -2.355748496699e-01 2.134090753243e-01 2.355748496699e-01 2.134090753243e-01 2.355748496699e-01 7.865909246757e-01 -2.355748496699e-01
2.583312500000e-01 7.865408979334e-01 -2.356508612173e-01 2.134591020666e-01 2.356508612173e-01 2.134591020666e-01 2.356508612173e-01 7.865408979334e-01 -2.356508612173e-01
2.584050000000e-01 7.864908619605e-01 -2.357268516530e-01 2.135091380395e-01 2.357268516530e-01 2.135091380395e-01 2.357268516530e-01 7.864908619605e-01 -2.357268516530e-01
2.584787500000e-01 7.864408167627e-01 -2.358028209825e-01 2.135591832373e-01 2.358028209825e-01 2.135591832373e-01 2.358028209825e-01 7.864408167627e-01 -2.358028209825e-01
2.585525000000e-01 7.863907623461e-01 -2.358787692117e-01 2.136092376539e-01 2.358787692117e-01 2.136092376539e-01 2.358787692117e-01 7.863907623461e-01 -2.358787692117e-01
2.586262500000e-01 7.863406987163e-01 -2.359546963461e-01 2.136593012837e-01 2.359546963461e-01 2.136593012837e-01 2.359546963461e-01 7.863406987163e-01 -2.359546963461e-01
2.587000000000e-01 7.862906258793e-01 -2.360306023913e-01 2.137093741207e-01 2.360306023913e-01 2.137093741207e-01 2.360306023913e-01 7.862906258793e-01 -2.360306023913e-01
2.587737500000e-01 7.862405438409e-01 -2.361064873529e-01 2.137594561591e-01 2.361064873529e-01 2.137594561591e-01 2.361064873529e-01 7.862405438409e-01 -2.361064873529e-01
2.588475000000e-01 7.861904526070e-01 -2.361823512366e-01 2.138095473930e-01 2.361823512366e-01 2.138095473930e-01 2.361823512366e-01 7.861904526070e-01 -2.361823512366e-01
2.589212500000e-01 7.861403521833e-01 -2.362581940479e-01 2.138596478167e-01 2.362581940479e-01 2.138596478167e-01 2.362581940479e-01 7.861403521833e-01 -2.362581940479e-01
2.589950000000e-01 7.860902425759e-01 -2.363340157925e-01 2.139097574241e-01 2.363340157925e-01 2.139097574241e-01 2.363340157925e-01 7.860902425759e-01 -2.363340157925e-01
2.590687500000e-01 7.860401237904e-01 -2.364098164759e-01 2.139598762096e-01 2.364098164759e-01 2.139598762096e-01 2.364098164759e-01 7.860401237904e-01 -2.364098164759e-01
2.591425000000e-01 7.859899958328e-01 -2.364855961039e-01 2.140100041672e-01 2.364855961039e-01 2.140100041672e-01 2.364855961039e-01 7.859899958328e-01 -2.364855961039e-01
2.592162500000e-01 7.859398587088e-01 -2.365613546818e-01 2.140601412912e-01 2.365613546818e-01 2.140601412912e-01 2.365613546818e-01 7.859398587088e-01 -2.365613546818e-01
2.592900000000e-01 7.858897124244e-01 -2.366370922153e-01 2.141102875756e-01 2.366370922153e-01 2.141102875756e-01 2.366370922153e-01 7.858897124244e-01 -2.366370922153e-01
2.593637500000e-01 7.858395569853e-01 -2.367128087101e-01 2.141604430147e-01 2.367128087101e-01 2.141604430147e-01 2.367128087101e-01 7.858395569853e-01 -2.367128087101e-01
2.594375000000e-01 7.857893923974e-01 -2.367885041716e-01 2.142106076026e-01 2.367885041716e-01 2.142106076026e-01 2.367885041716e-01 7.857893923974e-01 -2.367885041716e-01
2.595112500000e-01 7.857392186664e-01 -2.368641786054e-01 2.142607813336e-01 2.368641786054e-01 2.142607813336e-01 2.368641786054e-01 7.857392186664e-01 -2.368641786054e-01
2.595850000000e-01 7.856890357983e-01 -2.369398320171e-01 2.143109642017e-01 2.369398320171e-01 2.143109642017e-01 2.369398320171e-01 7.856890357983e-01 -2.369398320171e-01
2.596587500000e-01 7.856388437989e-01 -2.370154644122e-01 2.143611562011e-01 2.370154644122e-01 2.143611562011e-01 2.370154644122e-01 7.856388437989e-01 -2.370154644122e-01
2.597325000000e-01 7.855886426739e-01 -2.370910757963e-01 2.144113573261e-01 2.370910757963e-01 2.144113573261e-01 2.370910757963e-01 7.855886426739e-01 -2.370910757963e-01
2.598062500000e-01 7.855384324292e-01 -2.371666661749e-01 2.144615675708e-01 2.371666661749e-01 2.144615675708e-01 2.371666661749e-01 7.855384324292e-01 -2.371666661749e-01
2.598800000000e-01 7.854882130707e-01 -2.372422355536e-01 2.145117869293e-01 2.372422355536e-01 2.145117869293e-01 2.372422355536e-01 7.854882130707e-01 -2.372422355536e-01
2.599537500000e-01 7.854379846041e-01 -2.373177839378e-01 2.145620153959e-01 2.373177839378e-01 2.145620153959e-01 2.373177839378e-01 7.854379846041e-01 -2.373177839378e-01
2.600275000000e-01 7.853877470352e-01 -2.373933113332e-01 2.146122529648e-01 2.373933113332e-01 2.146122529648e-01 2.373933113332e-01 7.853877470352e-01 -2.373933113332e-01
2.601012500000e-01 7.853375003698e-01 -2.374688177452e-01 2.146624996302e-01 2.374688177452e-01 2.146624996302e-01 2.374688177452e-01 7.853375003698e-01 -2.374688177452e-01
2.601750000000e-01 7.852872446138e-01 -2.375443031793e-01 2.147127553862e-01 2.375443031793e-01 2.147127553862e-01 2.375443031793e-01 7.852872446138e-01 -2.375443031793e-01
2.602487500000e-01 7.852369797730e-01 -2.376197676411e-01 2.147630202270e-01 2.376197676411e-01 2.147630202270e-01 2.376197676411e-01 7.852369797730e-01 -2.376197676411e-01
2.603225000000e-01 7.851867058532e-01 -2.376952111361e-01 2.148132941468e-01 2.376952111361e-01 2.148132941468e-01 2.376952111361e-01 7.851867058532e-01 -2.376952111361e-01
2.603962500000e-01 7.851364228601e-01 -2.377706336696e-01 2.148635771399e-01 2.377706336696e-01 2.148635771399e-01 2.377706336696e-01 7.851364228601e-01 -2.377706336696e-01
2.604700000000e-01 7.850861307996e-01 -2.378460352474e-01 2.149138692004e-01 2.378460352474e-01 2.149138692004e-01 2.378460352474e-01 7.850861307996e-01 -2.378460352474e-01
2.605437500000e-01 7.850358296775e-01 -2.379214158748e-01 2.149641703225e-01 2.379214158748e-01 2.149641703225e-01 2.379214158748e-01 7.850358296775e-01 -2.379214158748e-01
2.606175000000e-01 7.849855194995e-01 -2.379967755573e-01 2.150144805005e-01 2.379967755573e-01 2.150144805005e-01 2.379967755573e-01 7.849855194995e-01 -2.379967755573e-01
2.606912500000e-01 7.849352002715e-01 -2.380721143004e-01 2.150647997285e-01 2.380721143004e-01 2.150647997285e-01 2.380721143004e-01 7.849352002715e-01 -2.380721143004e-01
2.607650000000e-01 7.848848719993e-01 -2.381474321095e-01 2.151151280007e-01 2.381474321095e-01 2.151151280007e-01 2.381474321095e-01 7.848848719993e-01 -2.381474321095e-01
2.608387500000e-01 7.848345346885e-01 -2.382227289902e-01 2.151654653115e-01 2.382227289902e-01 2.151654653115e-01 2.382227289902e-01 7.848345346885e-01 -2.382227289902e-01
2.609125000000e-01 7.847841883451e-01 -2.382980049479e-01 2.152158116549e-01 2.382980049479e-01 2.152158116549e-01 2.382980049479e-01 7.847841883451e-01 -2.382980049479e-01
2.609862500000e-01 7.847338329749e-01 -2.383732599880e-01 2.152661670251e-01 2.383732599880e-01 2.152661670251e-01 2.383732599880e-01 7.847338329749e-01 -2.383732599880e-01
2.610600000000e-01 7.846834685835e-01 -2.384484941161e-01 2.153165314165e-01 2.384484941161e-01 2.153165314165e-01 2.384484941161e-01 7.846834685835e-01 -2.384484941161e-01
2.611337500000e-01 7.846330951767e-01 -2.385237073375e-01 2.153669048233e-01 2.385237073375e-01 2.153669048233e-01 2.385237073375e-01 7.846330951767e-01 -2.385237073375e-01
2.612075000000e-01 7.845827127605e-01 -2.385988996576e-01 2.154172872395e-01 2.385988996576e-01 2.154172872395e-01 2.385988996576e-01 7.845827127605e-01 -2.385988996576e-01
2.612812500000e-01 7.845323213404e-01 -2.386740710820e-01 2.154676786596e-01 2.386740710820e-01 2.154676786596e-01 2.386740710820e-01 7.845323213404e-01 -2.386740710820e-01
2.613550000000e-01 7.844819209223e-01 -2.387492216161e-01 2.155180790777e-01 2.387492216161e-01 2.155180790777e-01 2.387492216161e-01 7.844819209223e-01 -2.387492216161e-01
2.614287500000e-01 7.844315115121e-01 -2.388243512652e-01 2.155684884879e-01 2.388243512652e-01 2.155684884879e-01 2.388243512652e-01 7.844315115121e-01 -2.388243512652e-01
2.615025000000e-01 7.843810931153e-01 -2.388994600348e-01 2.156189068847e-01 2.388994600348e-01 2.156189068847e-01 2.388994600348e-01 7.843810931153e-01 -2.388994600348e-01
2.615762500000e-01 7.843306657379e-01 -2.389745479304e-01 2.156693342621e-01 2.389745479304e-01 2.156693342621e-01 2.389745479304e-01 7.843306657379e-01 -2.389745479304e-01
2.616500000000e-01 7.842802293855e-01 -2.390496149572e-01 2.157197706145e-01 2.390496149572e-01 2.157197706145e-01 2.390496149572e-01 7.842802293855e-01 -2.390496149572e-01
2.617237500000e-01 7.842297840639e-01 -2.391246611208e-01 2.157702159361e-01 2.391246611208e-01 2.157702159361e-01 2.391246611208e-01 7.842297840639e-01 -2.391246611208e-01
2.617975000000e-01 7.841793297790e-01 -2.391996864265e-01 2.158206702210e-01 2.391996864265e-01 2.158206702210e-01 2.391996864265e-01 7.841793297790e-01 -2.391996864265e-01
2.618712500000e-01 7.841288665364e-01 -2.392746908797e-01 2.158711334636e-01 2.392746908797e-01 2.158711334636e-01 2.392746908797e-01 7.841288665364e-01 -2.392746908797e-01
2.619450000000e-01 7.840783943419e-01 -2.393496744858e-01 2.159216056581e-01 2.393496744858e-01 2.159216056581e-01 2.393496744858e-01 7.840783943419e-01 -2.393496744858e-01
2.620187500000e-01 7.840279132012e-01 -2.394246372502e-01 2.159720867988e-01 2.394246372502e-01 2.159720867988e-01 2.394246372502e-01 7.840279132012e-01 -2.394246372502e-01
2.620925000000e-01 7.839774231202e-01 -2.394995791783e-01 2.160225768798e-01 2.394995791783e-01 2.160225768798e-01 2.394995791783e-01 7.839774231202e-01 -2.394995791783e-01
2.621662500000e-01 7.839269241045e-01 -2.395745002754e-01 2.160730758955e-01 2.395745002754e-01 2.160730758955e-01 2.395745002754e-01 7.839269241045e-01 -2.395745002754e-01
2.622400000000e-01 7.838764161599e-01 -2.396494005469e-01 2.161235838401e-01 2.396494005469e-01 2.161235838401e-01 2.396494005469e-01 7.838764161599e-01 -2.396494005469e-01
2.623137500000e-01 7.838258992922e-01 -2.397242799982e-01 2.161741007078e-01 2.397242799982e-01 2.161741007078e-01 2.397242799982e-01 7.838258992922e-01 -2.397242799982e-01
2.623875000000e-01 7.837753735071e-01 -2.397991386346e-01 2.162246264929e-01 2.397991386346e-01 2.162246264929e-01 2.397991386346e-01 7.837753735071e-01 -2.397991386346e-01
2.624612500000e-01 7.837248388103e-01 -2.398739764615e-01 2.162751611897e-01 2.398739764615e-01 2.162751611897e-01 2.398739764615e-01 7.837248388103e-01 -2.398739764615e-01
2.625350000000e-01 7.836742952076e-01 -2.399487934842e-01 2.163257047924e-01 2.399487934842e-01 2.163257047924e-01 2.399487934842e-01 7.836742952076e-01 -2.399487934842e-01
2.626087500000e-01 7.836237427047e-01 -2.400235897081e-01 2.163762572953e-01 2.400235897081e-01 2.163762572953e-01 2.400235897081e-01 7.836237427047e-01 -2.400235897081e-01
2.626825000000e-01 7.835731813074e-01 -2.400983651385e-01 2.164268186926e-01 2.400983651385e-01 2.164268186926e-01 2.400983651385e-01 7.835731813074e-01 -2.400983651385e-01
2.627562500000e-01 7.835226110213e-01 -2.401731197807e-01 2.164773889787e-01 2.401731197807e-01 2.164773889787e-01 2.401731197807e-01 7.835226110213e-01 -2.401731197807e-01
2.628300000000e-01 7.834720318522e-01 -2.402478536401e-01 2.165279681478e-01 2.402478536401e-01 2.165279681478e-01 2.402478536401e-01 7.834720318522e-01 -2.402478536401e-01
2.629037500000e-01 7.834214438059e-01 -2.403225667220e-01 2.165785561941e-01 2.403225667220e-01 2.165785561941e-01 2.403225667220e-01 7.834214438059e-01 -2.403225667220e-01
2.629775000000e-01 7.833708468881e-01 -2.403972590317e-01 2.166291531119e-01 2.403972590317e-01 2.166291531119e-01 2.403972590317e-01 7.833708468881e-01 -2.403972590317e-01
2.630512500000e-01 7.833202411044e-01 -2.404719305745e-01 2.166797588956e-01 2.404719305745e-01 2.166797588956e-01 2.404719305745e-01 7.833202411044e-01 -2.404719305745e-01
2.631250000000e-01 7.832696264606e-01 -2.405465813557e-01 2.167303735394e-01 2.405465813557e-01 2.167303735394e-01 2.405465813557e-01 7.832696264606e-01 -2.405465813557e-01
2.631987500000e-01 7.832190029625e-01 -2.406212113807e-01 2.167809970375e-01 2.406212113807e-01 2.167809970375e-01 2.406212113807e-01 7.832190029625e-01 -2.406212113807e-01
2.632725000000e-01 7.831683706157e-01 -2.406958206547e-01 2.168316293843e-01 2.406958206547e-01 2.168316293843e-01 2.406958206547e-01 7.831683706157e-01 -2.406958206547e-01
2.633462500000e-01 7.831177294259e-01 -2.407704091830e-01 2.168822705741e-01 2.407704091830e-01 2.168822705741e-01 2.407704091830e-01 7.831177294259e-01 -2.407704091830e-01
2.634200000000e-01 7.830670793990e-01 -2.408449769709e-01 2.169329206010e-01 2.408449769709e-01 2.169329206010e-01 2.408449769709e-01 7.830670793990e-01 -2.408449769709e-01
2.634937500000e-01 7.830164205405e-01 -2.409195240237e-01 2.169835794595e-01 2.409195240237e-01 2.169835794595e-01 2.409195240237e-01 7.830164205405e-01 -2.409195240237e-01
2.635675000000e-01 7.829657528562e-01 -2.409940503466e-01 2.170342471438e-01 2.409940503466e-01 2.170342471438e-01 2.409940503466e-01 7.829657528562e-01 -2.409940503466e-01
2.636412500000e-01 7.829150763518e-01 -2.410685559450e-01 2.170849236482e-01 2.410685559450e-01 2.170849236482e-01 2.410685559450e-01 7.829150763518e-01 -2.410685559450e-01
2.637150000000e-01 7.828643910331e-01 -2.411430408241e-01 2.171356089669e-01 2.411430408241e-01 2.171356089669e-01 2.411430408241e-01 7.828643910331e-01 -2.411430408241e-01
2.637887500000e-01 7.828136969056e-01 -2.412175049892e-01 2.171863030944e-01 2.412175049892e-01 2.171863030944e-01 2.412175049892e-01 7.828136969056e-01 -2.412175049892e-01
2.638625000000e-01 7.827629939751e-01 -2.412919484455e-01 2.172370060249e-01 2.412919484455e-01 2.172370060249e-01 2.412919484455e-01 7.827629939751e-01 -2.412919484455e-01
2.639362500000e-01 7.827122822474e-01 -2.413663711983e-01 2.172877177526e-01 2.413663711983e-01 2.172877177526e-01 2.413663711983e-01 7.827122822474e-01 -2.413663711983e-01
2.640100000000e-01 7.826615617280e-01 -2.414407732528e-01 2.173384382720e-01 2.414407732528e-01 2.173384382720e-01 2.414407732528e-01 7.826615617280e-01 -2.414407732528e-01
2.640837500000e-01 7.826108324228e-01 -2.415151546142e-01 2.173891675772e-01 2.415151546142e-01 2.173891675772e-01 2.415151546142e-01 7.826108324228e-01 -2.415151546142e-01
2.641575000000e-01 7.825600943373e-01 -2.415895152879e-01 2.174399056627e-01 2.415895152879e-01 2.174399056627e-01 2.415895152879e-01 7.825600943373e-01 -2.415895152879e-01
2.642312500000e-01 7.825093474773e-01 -2.416638552790e-01 2.174906525227e-01 2.416638552790e-01 2.174906525227e-01 2.416638552790e-01 7.825093474773e-01 -2.416638552790e-01
2.643050000000e-01 7.824585918485e-01 -2.417381745928e-01 2.175414081515e-01 2.417381745928e-01 2.175414081515e-01 2.417381745928e-01 7.824585918485e-01 -2.417381745928e-01
2.643787500000e-01 7.824078274565e-01 -2.418124732345e-01 2.175921725435e-01 2.418124732345e-01 2.175921725435e-01 2.418124732345e-01 7.824078274565e-01 -2.418124732345e-01
2.644525000000e-01 7.823570543071e-01 -2.418867512093e-01 2.176429456929e-01 2.418867512093e-01 2.176429456929e-01 2.418867512093e-01 7.823570543071e-01 -2.418867512093e-01
2.645262500000e-01 7.823062724059e-01 -2.419610085224e-01 2.176937275941e-01 2.419610085224e-01 2.176937275941e-01 2.419610085224e-01 7.823062724059e-01 -2.419610085224e-01
2.646000000000e-01 7.822554817586e-01 -2.420352451790e-01 2.177445182414e-01 2.420352451790e-01 2.177445182414e-01 2.420352451790e-01 7.822554817586e-01 -2.420352451790e-01
2.646737500000e-01 7.822046823708e-01 -2.421094611844e-01 2.177953176292e-01 2.421094611844e-01 2.177953176292e-01 2.421094611844e-01 7.822046823708e-01 -2.421094611844e-01
2.647475000000e-01 7.821538742484e-01 -2.421836565437e-01 2.178461257516e-01 2.421836565437e-01 2.178461257516e-01 2.421836565437e-01 7.821538742484e-01 -2.421836565437e-01
2.648212500000e-01 7.821030573968e-01 -2.422578312621e-01 2.178969426032e-01 2.422578312621e-01 2.178969426032e-01 2.422578312621e-01 7.821030573968e-01 -2.422578312621e-01
2.648950000000e-01 7.820522318218e-01 -2.423319853449e-01 2.179477681782e-01 2.423319853449e-01 2.179477681782e-01 2.423319853449e-01 7.820522318218e-01 -2.423319853449e-01
2.649687500000e-01 7.820013975291e-01 -2.424061187972e-01 2.179986024709e-01 2.424061187972e-01 2.179986024709e-01 2.424061187972e-01 7.820013975291e-01 -2.424061187972e-01
2.650425000000e-01 7.819505545244e-01 -2.424802316241e-01 2.180494454756e-01 2.424802316241e-01 2.180494454756e-01 2.424802316241e-01 7.819505545244e-01 -2.424802316241e-01
2.651162500000e-01 7.818997028132e-01 -2.425543238309e-01 2.181002971868e-01 2.425543238309e-01 2.181002971868e-01 2.425543238309e-01 7.818997028132e-01 -2.425543238309e-01
2.651900000000e-01 7.818488424013e-01 -2.426283954228e-01 2.181511575987e-01 2.426283954228e-01 2.181511575987e-01 2.426283954228e-01 7.818488424013e-01 -2.426283954228e-01
2.652637500000e-01 7.817979732943e-01 -2.427024464048e-01 2.182020267057e-01 2.427024464048e-01 2.182020267057e-01 2.427024464048e-01 7.817979732943e-01 -2.427024464048e-01
2.653375000000e-01 7.817470954979e-01 -2.427764767822e-01 2.182529045021e-01 2.427764767822e-01 2.182529045021e-01 2.427764767822e-01 7.817470954979e-01 -2.427764767822e-01
2.654112500000e-01 7.816962090177e-01 -2.428504865602e-01 2.183037909823e-01 2.428504865602e-01 2.183037909823e-01 2.428504865602e-01 7.816962090177e-01 -2.428504865602e-01
2.654850000000e-01 7.816453138595e-01 -2.429244757437e-01 2.183546861405e-01 2.429244757437e-01 2.183546861405e-01 2.429244757437e-01 7.816453138595e-01 -2.429244757437e-01
2.655587500000e-01 7.815944100287e-01 -2.429984443382e-01 2.184055899713e-01 2.429984443382e-01 2.184055899713e-01 2.429984443382e-01 7.815944100287e-01 -2.429984443382e-01
2.656325000000e-01 7.815434975312e-01 -2.430723923485e-01 2.184565024688e-01 2.430723923485e-01 2.184565024688e-01 2.430723923485e-01 7.815434975312e-01 -2.430723923485e-01
2.657062500000e-01 7.814925763725e-01 -2.431463197800e-01 2.185074236275e-01 2.431463197800e-01 2.185074236275e-01 2.431463197800e-01 7.814925763725e-01 -2.431463197800e-01
2.657800000000e-01 7.814416465583e-01 -2.432202266376e-01 2.185583534417e-01 2.432202266376e-01 2.185583534417e-01 2.432202266376e-01 7.814416465583e-01 -2.432202266376e-01
2.658537500000e-01 7.813907080942e-01 -2.432941129267e-01 2.186092919058e-01 2.432941129267e-01 2.186092919058e-01 2.432941129267e-01 7.813907080942e-01 -2.432941129267e-01
2.659275000000e-01 7.813397609859e-01 -2.433679786522e-01 2.186602390141e-01 2.433679786522e-01 2.186602390141e-01 2.433679786522e-01 7.813397609859e-01 -2.433679786522e-01
2.660012500000e-01 7.812888052391e-01 -2.434418238193e-01 2.187111947609e-01 2.434418238193e-01 2.187111947609e-01 2.434418238193e-01 7.812888052391e-01 -2.434418238193e-01
2.660750000000e-01 7.812378408592e-01 -2.435156484331e-01 2.187621591408e-01 2.435156484331e-01 2.187621591408e-01 2.435156484331e-01 7.812378408592e-01 -2.435156484331e-01
2.661487500000e-01 7.811868678521e-01 -2.435894524988e-01 2.188131321479e-01 2.435894524988e-01 2.188131321479e-01 2.435894524988e-01 7.811868678521e-01 -2.435894524988e-01
2.662225000000e-01 7.811358862233e-01 -2.436632360213e-01 2.188641137767e-01 2.436632360213e-01 2.188641137767e-01 2.436632360213e-01 7.811358862233e-01 -2.436632360213e-01
2.662962500000e-01 7.810848959785e-01 -2.437369990059e-01 2.189151040215e-01 2.437369990059e-01 2.189151040215e-01 2.437369990059e-01 7.810848959785e-01 -2.437369990059e-01
2.663700000000e-01 7.810338971232e-01 -2.438107414576e-01 2.189661028768e-01 2.438107414576e-01 2.189661028768e-01 2.438107414576e-01 7.810338971232e-01 -2.438107414576e-01
2.664437500000e-01 7.809828896632e-01 -2.438844633816e-01 2.190171103368e-01 2.438844633816e-01 2.190171103368e-01 2.438844633816e-01 7.809828896632e-01 -2.438844633816e-01
2.665175000000e-01 7.809318736040e-01 -2.439581647828e-01 2.190681263960e-01 2.439581647828e-01 2.190681263960e-01 2.439581647828e-01 7.809318736040e-01 -2.439581647828e-01
2.665912500000e-01 7.808808489513e-01 -2.440318456664e-01 2.191191510487e-01 2.440318456664e-01 2.191191510487e-01 2.440318456664e-01 7.808808489513e-01 -2.440318456664e-01
2.666650000000e-01 7.808298157107e-01 -2.441055060374e-01 2.191701842893e-01 2.441055060374e-01 2.191701842893e-01 2.441055060374e-01 7.808298157107e-01 -2.441055060374e-01
2.667387500000e-01 7.807787738878e-01 -2.441791459010e-01 2.192212261122e-01 2.441791459010e-01 2.192212261122e-01 2.441791459010e-01 7.807787738878e-01 -2.441791459010e-01
2.668125000000e-01 7.807277234882e-01 -2.442527652622e-01 2.192722765118e-01 2.442527652622e-01 2.192722765118e-01 2.442527652622e-01 7.807277234882e-01 -2.442527652622e-01
2.668862500000e-01 7.806766645176e-01 -2.443263641261e-01 2.193233354824e-01 2.443263641261e-01 2.193233354824e-01 2.443263641261e-01 7.806766645176e-01 -2.443263641261e-01
2.669600000000e-01 7.806255969815e-01 -2.443999424976e-01 2.193744030185e-01 2.443999424976e-01 2.193744030185e-01 2.443999424976e-01 7.806255969815e-01 -2.443999424976e-01
2.670337500000e-01 7.805745208856e-01 -2.444735003820e-01 2.194254791144e-01 2.444735003820e-01 2.194254791144e-01 2.444735003820e-01 7.805745208856e-01 -2.444735003820e-01
2.671075000000e-01 7.805234362355e-01 -2.445470377842e-01 2.194765637645e-01 2.445470377842e-01 2.194765637645e-01 2.445470377842e-01 7.805234362355e-01 -2.445470377842e-01
2.671812500000e-01 7.804723430367e-01 -2.446205547092e-01 2.195276569633e-01 2.446205547092e-01 2.195276569633e-01 2.446205547092e-01 7.804723430367e-01 -2.446205547092e-01
2.672550000000e-01 7.804212412950e-01 -2.446940511621e-01 2.195787587050e-01 2.446940511621e-01 2.195787587050e-01 2.446940511621e-01 7.804212412950e-01 -2.446940511621e-01
2.673287500000e-01 7.803701310159e-01 -2.447675271480e-01 2.196298689841e-01 2.447675271480e-01 2.196298689841e-01 2.447675271480e-01 7.803701310159e-01 -2.447675271480e-01
2.674025000000e-01 7.803190122049e-01 -2.448409826719e-01 2.196809877951e-01 2.448409826719e-01 2.196809877951e-01 2.448409826719e-01 7.803190122049e-01 -2.448409826719e-01
2.674762500000e-01 7.802678848678e-01 -2.449144177388e-01 2.197321151322e-01 2.449144177388e-01 2.197321151322e-01 2.449144177388e-01 7.802678848678e-01 -2.449144177388e-01
2.675500000000e-01 7.802167490101e-01 -2.449878323537e-01 2.197832509899e-01 2.449878323537e-01 2.197832509899e-01 2.449878323537e-01 7.802167490101e-01 -2.449878323537e-01
2.676237500000e-01 7.801656046374e-01 -2.450612265216e-01 2.198343953626e-01 2.450612265216e-01 2.198343953626e-01 2.450612265216e-01 7.801656046374e-01 -2.450612265216e-01
2.676975000000e-01 7.801144517552e-01 -2.451346002476e-01 2.198855482448e-01 2.451346002476e-01 2.198855482448e-01 2.451346002476e-01 7.801144517552e-01 -2.451346002476e-01
2.677712500000e-01 7.800632903693e-01 -2.452079535367e-01 2.199367096307e-01 2.452079535367e-01 2.199367096307e-01 2.452079535367e-01 7.800632903693e-01 -2.452079535367e-01
2.678450000000e-01 7.800121204851e-01 -2.452812863938e-01 2.199878795149e-01 2.452812863938e-01 2.199878795149e-01 2.452812863938e-01 7.800121204851e-01 -2.452812863938e-01
2.679187500000e-01 7.799609421082e-01 -2.453545988241e-01 2.200390578918e-01 2.453545988241e-01 2.200390578918e-01 2.453545988241e-01 7.799609421082e-01 -2.453545988241e-01
2.679925000000e-01 7.799097552444e-01 -2.454278908323e-01 2.200902447556e-01 2.454278908323e-01 2.200902447556e-01 2.454278908323e-01 7.799097552444e-01 -2.454278908323e-01
2.680662500000e-01 7.798585598990e-01 -2.455011624237e-01 2.201414401010e-01 2.455011624237e-01 2.201414401010e-01 2.455011624237e-01 7.798585598990e-01 -2.455011624237e-01
2.681400000000e-01 7.798073560778e-01 -2.455744136031e-01 2.201926439222e-01 2.455744136031e-01 2.201926439222e-01 2.455744136031e-01 7.798073560778e-01 -2.455744136031e-01
2.682137500000e-01 7.797561437863e-01 -2.456476443755e-01 2.202438562137e-01 2.456476443755e-01 2.202438562137e-01 2.456476443755e-01 7.797561437863e-01 -2.456476443755e-01
2.682875000000e-01 7.797049230300e-01 -2.457208547459e-01 2.202950769700e-01 2.457208547459e-01 2.202950769700e-01 2.457208547459e-01 7.797049230300e-01 -2.457208547459e-01
2.683612500000e-01 7.796536938146e-01 -2.457940447193e-01 2.203463061854e-01 2.457940447193e-01 2.203463061854e-01 2.457940447193e-01 7.796536938146e-01 -2.457940447193e-01
2.684350000000e-01 7.796024561456e-01 -2.458672143007e-01 2.203975438544e-01 2.458672143007e-01 2.203975438544e-01 2.458672143007e-01 7.796024561456e-01 -2.458672143007e-01
2.685087500000e-01 7.795512100286e-01 -2.459403634949e-01 2.204487899714e-01 2.459403634949e-01 2.204487899714e-01 2.459403634949e-01 7.795512100286e-01 -2.459403634949e-01
2.685825000000e-01 7.794999554692e-01 -2.460134923071e-01 2.205000445308e-01 2.460134923071e-01 2.205000445308e-01 2.460134923071e-01 7.794999554692e-01 -2.460134923071e-01
2.686562500000e-01 7.794486924729e-01 -2.460866007421e-01 2.205513075271e-01 2.460866007421e-01 2.205513075271e-01 2.460866007421e-01 7.794486924729e-01 -2.460866007421e-01
2.687300000000e-01 7.793974210453e-01 -2.461596888048e-01 2.206025789547e-01 2.461596888048e-01 2.206025789547e-01 2.461596888048e-01 7.793974210453e-01 -2.461596888048e-01
2.688037500000e-01 7.793461411920e-01 -2.462327565003e-01 2.206538588080e-01 2.462327565003e-01 2.206538588080e-01 2.462327565003e-01 7.793461411920e-01 -2.462327565003e-01
2.688775000000e-01 7.792948529185e-01 -2.463058038335e-01 2.207051470815e-01 2.463058038335e-01 2.207051470815e-01 2.463058038335e-01 7.792948529185e-01 -2.463058038335e-01
2.689512500000e-01 7.792435562303e-01 -2.463788308092e-01 2.207564437697e-01 2.463788308092e-01 2.207564437697e-01 2.463788308092e-01 7.792435562303e-01 -2.463788308092e-01
2.690250000000e-01 7.791922511332e-01 -2.464518374325e-01 2.208077488668e-01 2.464518374325e-01 2.208077488668e-01 2.464518374325e-01 7.791922511332e-01 -2.464518374325e-01
2.690987500000e-01 7.791409376325e-01 -2.465248237083e-01 2.208590623675e-01 2.465248237083e-01 2.208590623675e-01 2.465248237083e-01 7.791409376325e-01 -2.465248237083e-01
2.691725000000e-01 7.790896157339e-01 -2.465977896415e-01 2.209103842661e-01 2.465977896415e-01 2.209103842661e-01 2.465977896415e-01 7.790896157339e-01 -2.465977896415e-01
2.692462500000e-01 7.790382854429e-01 -2.466707352370e-01 2.209617145571e-01 2.466707352370e-01 2.209617145571e-01 2.466707352370e-01 7.790382854429e-01 -2.466707352370e-01
2.693200000000e-01 7.789869467651e-01 -2.467436604998e-01 2.210130532349e-01 2.467436604998e-01 2.210130532349e-01 2.467436604998e-01 7.789869467651e-01 -2.467436604998e-01
2.693937500000e-01 7.789355997060e-01 -2.468165654347e-01 2.210644002940e-01 2.468165654347e-01 2.210644002940e-01 2.468165654347e-01 7.789355997060e-01 -2.468165654347e-01
2.694675000000e-01 7.788842442711e-01 -2.468894500466e-01 2.211157557289e-01 2.468894500466e-01 2.211157557289e-01 2.468894500466e-01 7.788842442711e-01 -2.468894500466e-01
2.695412500000e-01 7.788328804660e-01 -2.469623143405e-01 2.211671195340e-01 2.469623143405e-01 2.211671195340e-01 2.469623143405e-01 7.788328804660e-01 -2.469623143405e-01
2.696150000000e-01 7.787815082963e-01 -2.470351583213e-01 2.212184917037e-01 2.470351583213e-01 2.212184917037e-01 2.470351583213e-01 7.787815082963e-01 -2.470351583213e-01
2.696887500000e-01 7.787301277675e-01 -2.471079819938e-01 2.212698722325e-01 2.471079819938e-01 2.212698722325e-01 2.471079819938e-01 7.787301277675e-01 -2.471079819938e-01
2.697625000000e-01 7.786787388851e-01 -2.471807853630e-01 2.213212611149e-01 2.471807853630e-01 2.213212611149e-01 2.471807853630e-01 7.786787388851e-01 -2.471807853630e-01
2.698362500000e-01 7.786273416547e-01 -2.472535684337e-01 2.213726583453e-01 2.472535684337e-01 2.213726583453e-01 2.472535684337e-01 7.786273416547e-01 -2.472535684337e-01
2.699100000000e-01 7.785759360817e-01 -2.473263312109e-01 2.214240639183e-01 2.473263312109e-01 2.214240639183e-01 2.473263312109e-01 7.785759360817e-01 -2.473263312109e-01
2.699837500000e-01 7.785245221718e-01 -2.473990736993e-01 2.214754778282e-01 2.473990736993e-01 2.214754778282e-01 2.473990736993e-01 7.785245221718e-01 -2.473990736993e-01
2.700575000000e-01 7.784730999305e-01 -2.474717959039e-01 2.215269000695e-01 2.474717959039e-01 2.215269000695e-01 2.474717959039e-01 7.784730999305e-01 -2.474717959039e-01
2.701312500000e-01 7.784216693632e-01 -2.475444978296e-01 2.215783306368e-01 2.475444978296e-01 2.215783306368e-01 2.475444978296e-01 7.784216693632e-01 -2.475444978296e-01
2.702050000000e-01 7.783702304756e-01 -2.476171794811e-01 2.216297695244e-01 2.476171794811e-01 2.216297695244e-01 2.476171794811e-01 7.783702304756e-01 -2.476171794811e-01
2.702787500000e-01 7.783187832731e-01 -2.476898408634e-01 2.216812167269e-01 2.476898408634e-01 2.216812167269e-01 2.476898408634e-01 7.783187832731e-01 -2.476898408634e-01
2.703525000000e-01 7.782673277612e-01 -2.477624819814e-01 2.217326722388e-01 2.477624819814e-01 2.217326722388e-01 2.477624819814e-01 7.782673277612e-01 -2.477624819814e-01
2.704262500000e-01 7.782158639456e-01 -2.478351028398e-01 2.217841360544e-01 2.478351028398e-01 2.217841360544e-01 2.478351028398e-01 7.782158639456e-01 -2.478351028398e-01
2.705000000000e-01 7.781643918317e-01 -2.479077034436e-01 2.218356081683e-01 2.479077034436e-01 2.218356081683e-01 2.479077034436e-01 7.781643918317e-01 -2.479077034436e-01
2.705737500000e-01 7.781129114250e-01 -2.479802837975e-01 2.218870885750e-01 2.479802837975e-01 2.218870885750e-01 2.479802837975e-01 7.781129114250e-01 -2.479802837975e-01
2.706475000000e-01 7.780614227311e-01 -2.480528439064e-01 2.219385772689e-01 2.480528439064e-01 2.219385772689e-01 2.480528439064e-01 7.780614227311e-01 -2.480528439064e-01
2.707212500000e-01 7.780099257554e-01 -2.481253837752e-01 2.219900742446e-01 2.481253837752e-01 2.219900742446e-01 2.481253837752e-01 7.780099257554e-01 -2.481253837752e-01
2.707950000000e-01 7.779584205034e-01 -2.481979034087e-01 2.220415794966e-01 2.481979034087e-01 2.220415794966e-01 2.481979034087e-01 7.779584205034e-01 -2.481979034087e-01
2.708687500000e-01 7.779069069808e-01 -2.482704028116e-01 2.220930930192e-01 2.482704028116e-01 2.220930930192e-01 2.482704028116e-01 7.779069069808e-01 -2.482704028116e-01
2.709425000000e-01 7.778553851930e-01 -2.483428819889e-01 2.221446148070e-01 2.483428819889e-01 2.221446148070e-01 2.483428819889e-01 7.778553851930e-01 -2.483428819889e-01
2.710162500000e-01 7.778038551454e-01 -2.484153409454e-01 2.221961448546e-01 2.484153409454e-01 2.221961448546e-01 2.484153409454e-01 7.778038551454e-01 -2.484153409454e-01
2.710900000000e-01 7.777523168436e-01 -2.484877796858e-01 2.222476831564e-01 2.484877796858e-01 2.222476831564e-01 2.484877796858e-01 7.777523168436e-01 -2.484877796858e-01
2.711637500000e-01 7.777007702932e-01 -2.485601982150e-01 2.222992297068e-01 2.485601982150e-01 2.222992297068e-01 2.485601982150e-01 7.777007702932e-01 -2.485601982150e-01
2.712375000000e-01 7.776492154996e-01 -2.486325965378e-01 2.223507845004e-01 2.486325965378e-01 2.223507845004e-01 2.486325965378e-01 7.776492154996e-01 -2.486325965378e-01
2.713112500000e-01 7.775976524682e-01 -2.487049746590e-01 2.224023475318e-01 2.487049746590e-01 2.224023475318e-01 2.487049746590e-01 7.775976524682e-01 -2.487049746590e-01
2.713850000000e-01 7.775460812047e-01 -2.487773325833e-01 2.224539187953e-01 2.487773325833e-01 2.224539187953e-01 2.487773325833e-01 7.775460812047e-01 -2.487773325833e-01
2.714587500000e-01 7.774945017144e-01 -2.488496703157e-01 2.225054982856e-01 2.488496703157e-01 2.225054982856e-01 2.488496703157e-01 7.774945017144e-01 -2.488496703157e-01
2.715325000000e-01 7.774429140030e-01 -2.489219878608e-01 2.225570859970e-01 2.489219878608e-01 2.225570859970e-01 2.489219878608e-01 7.774429140030e-01 -2.489219878608e-01
2.716062500000e-01 7.773913180758e-01 -2.489942852234e-01 2.226086819242e-01 2.489942852234e-01 2.226086819242e-01 2.489942852234e-01 7.773913180758e-01 -2.489942852234e-01
2.716800000000e-01 7.773397139384e-01 -2.490665624085e-01 2.226602860616e-01 2.490665624085e-01 2.226602860616e-01 2.490665624085e-01 7.773397139384e-01 -2.490665624085e-01
2.717537500000e-01 7.772881015962e-01 -2.491388194206e-01 2.227118984038e-01 2.491388194206e-01 2.227118984038e-01 2.491388194206e-01 7.772881015962e-01 -2.491388194206e-01
2.718275000000e-01 7.772364810548e-01 -2.492110562646e-01 2.227635189452e-01 2.492110562646e-01 2.227635189452e-01 2.492110562646e-01 7.772364810548e-01 -2.492110562646e-01
2.719012500000e-01 7.771848523196e-01 -2.492832729454e-01 2.228151476804e-01 2.492832729454e-01 2.228151476804e-01 2.492832729454e-01 7.771848523196e-01 -2.492832729454e-01
2.719750000000e-01 7.771332153961e-01 -2.493554694675e-01 2.228667846039e-01 2.493554694675e-01 2.228667846039e-01 2.493554694675e-01 7.771332153961e-01 -2.493554694675e-01
2.720487500000e-01 7.770815702898e-01 -2.494276458358e-01 2.229184297102e-01 2.494276458358e-01 2.229184297102e-01 2.494276458358e-01 7.770815702898e-01 -2.494276458358e-01
2.721225000000e-01 7.770299170062e-01 -2.494998020551e-01 2.229700829938e-01 2.494998020551e-01 2.229700829938e-01 2.494998020551e-01 7.770299170062e-01 -2.494998020551e-01
2.721962500000e-01 7.769782555507e-01 -2.495719381301e-01 2.230217444493e-01 2.495719381301e-01 2.230217444493e-01 2.495719381301e-01 7.769782555507e-01 -2.495719381301e-01
2.722700000000e-01 7.769265859288e-01 -2.496440540656e-01 2.230734140712e-01 2.496440540656e-01 2.230734140712e-01 2.496440540656e-01 7.769265859288e-01 -2.496440540656e-01
2.723437500000e-01 7.768749081460e-01 -2.497161498662e-01 2.231250918540e-01 2.497161498662e-01 2.231250918540e-01 2.497161498662e-01 7.768749081460e-01 -2.497161498662e-01
2.724175000000e-01 7.768232222078e-01 -2.497882255368e-01 2.231767777922e-01 2.497882255368e-01 2.231767777922e-01 2.497882255368e-01 7.768232222078e-01 -2.497882255368e-01
2.724912500000e-01 7.767715281195e-01 -2.498602810821e-01 2.232284718805e-01 2.498602810821e-01 2.232284718805e-01 2.498602810821e-01 7.767715281195e-01 -2.498602810821e-01
2.725650000000e-01 7.767198258868e-01 -2.499323165068e-01 2.232801741132e-01 2.499323165068e-01 2.232801741132e-01 2.499323165068e-01 7.767198258868e-01 -2.499323165068e-01
2.726387500000e-01 7.766681155151e-01 -2.500043318157e-01 2.233318844849e-01 2.500043318157e-01 2.233318844849e-01 2.500043318157e-01 7.766681155151e-01 -2.500043318157e-01
2.727125000000e-01 7.766163970097e-01 -2.500763270134e-01 2.233836029903e-01 2.500763270134e-01 2.233836029903e-01 2.500763270134e-01 7.766163970097e-01 -2.500763270134e-01
2.727862500000e-01 7.765646703763e-01 -2.501483021048e-01 2.234353296237e-01 2.501483021048e-01 2.234353296237e-01 2.501483021048e-01 7.765646703763e-01 -2.501483021048e-01
2.728600000000e-01 7.765129356202e-01 -2.502202570944e-01 2.234870643798e-01 2.502202570944e-01 2.234870643798e-01 2.502202570944e-01 7.765129356202e-01 -2.502202570944e-01
2.729337500000e-01 7.764611927469e-01 -2.502921919871e-01 2.235388072531e-01 2.502921919871e-01 2.235388072531e-01 2.502921919871e-01 7.764611927469e-01 -2.502921919871e-01
2.730075000000e-01 7.764094417618e-01 -2.503641067875e-01 2.235905582382e-01 2.503641067875e-01 2.235905582382e-01 2.503641067875e-01 7.764094417618e-01 -2.503641067875e-01
2.730812500000e-01 7.763576826705e-01 -2.504360015004e-01 2.236423173295e-01 2.504360015004e-01 2.236423173295e-01 2.504360015004e-01 7.763576826705e-01 -2.504360015004e-01
2.731550000000e-01 7.763059154783e-01 -2.505078761304e-01 2.236940845217e-01 2.505078761304e-01 2.236940845217e-01 2.505078761304e-01 7.763059154783e-01 -2.505078761304e-01
2.732287500000e-01 7.762541401907e-01 -2.505797306823e-01 2.237458598093e-01 2.505797306823e-01 2.237458598093e-01 2.505797306823e-01 7.762541401907e-01 -2.505797306823e-01
2.733025000000e-01 7.762023568132e-01 -2.506515651607e-01 2.237976431868e-01 2.506515651607e-01 2.237976431868e-01 2.506515651607e-01 7.762023568132e-01 -2.506515651607e-01
2.733762500000e-01 7.761505653512e-01 -2.507233795704e-01 2.238494346488e-01 2.507233795704e-01 2.238494346488e-01 2.507233795704e-01 7.761505653512e-01 -2.507233795704e-01
2.734500000000e-01 7.760987658101e-01 -2.507951739160e-01 2.239012341899e-01 2.507951739160e-01 2.239012341899e-01 2.507951739160e-01 7.760987658101e-01 -2.507951739160e-01
2.735237500000e-01 7.760469581955e-01 -2.508669482021e-01 2.239530418045e-01 2.508669482021e-01 2.239530418045e-01 2.508669482021e-01 7.760469581955e-01 -2.508669482021e-01
2.735975000000e-01 7.759951425126e-01 -2.509387024336e-01 2.240048574874e-01 2.509387024336e-01 2.240048574874e-01 2.509387024336e-01 7.759951425126e-01 -2.509387024336e-01
2.736712500000e-01 7.759433187671e-01 -2.510104366150e-01 2.240566812329e-01 2.510104366150e-01 2.240566812329e-01 2.510104366150e-01 7.759433187671e-01 -2.510104366150e-01
2.737450000000e-01 7.758914869642e-01 -2.510821507511e-01 2.241085130358e-01 2.510821507511e-01 2.241085130358e-01 2.510821507511e-01 7.758914869642e-01 -2.510821507511e-01
2.738187500000e-01 7.758396471095e-01 -2.511538448464e-01 2.241603528905e-01 2.511538448464e-01 2.241603528905e-01 2.511538448464e-01 7.758396471095e-01 -2.511538448464e-01
2.738925000000e-01 7.757877992084e-01 -2.512255189058e-01 2.242122007916e-01 2.512255189058e-01 2.242122007916e-01 2.512255189058e-01 7.757877992084e-01 -2.512255189058e-01
2.739662500000e-01 7.757359432662e-01 -2.512971729337e-01 2.242640567338e-01 2.512971729337e-01 2.242640567338e-01 2.512971729337e-01 7.757359432662e-01 -2.512971729337e-01
2.740400000000e-01 7.756840792886e-01 -2.513688069349e-01 2.243159207114e-01 2.513688069349e-01 2.243159207114e-01 2.513688069349e-01 7.756840792886e-01 -2.513688069349e-01
2.741137500000e-01 7.756322072807e-01 -2.514404209141e-01 2.243677927193e-01 2.514404209141e-01 2.243677927193e-01 2.514404209141e-01 7.756322072807e-01 -2.514404209141e-01
2.741875000000e-01 7.755803272482e-01 -2.515120148758e-01 2.244196727518e-01 2.515120148758e-01 2.244196727518e-01 2.515120148758e-01 7.755803272482e-01 -2.515120148758e-01
2.742612500000e-01 7.755284391964e-01 -2.515835888247e-01 2.244715608036e-01 2.515835888247e-01 2.244715608036e-01 2.515835888247e-01 7.755284391964e-01 -2.515835888247e-01
2.743350000000e-01 7.754765431307e-01 -2.516551427655e-01 2.245234568693e-01 2.516551427655e-01 2.245234568693e-01 2.516551427655e-01 7.754765431307e-01 -2.516551427655e-01
2.744087500000e-01 7.754246390566e-01 -2.517266767028e-01 2.245753609434e-01 2.517266767028e-01 2.245753609434e-01 2.517266767028e-01 7.754246390566e-01 -2.517266767028e-01
2.744825000000e-01 7.753727269795e-01 -2.517981906413e-01 2.246272730205e-01 2.517981906413e-01 2.246272730205e-01 2.517981906413e-01 7.753727269795e-01 -2.517981906413e-01
2.745562500000e-01 7.753208069048e-01 -2.518696845855e-01 2.246791930952e-01 2.518696845855e-01 2.246791930952e-01 2.518696845855e-01 7.753208069048e-01 -2.518696845855e-01
2.746300000000e-01 7.752688788378e-01 -2.519411585401e-01 2.247311211622e-01 2.519411585401e-01 2.247311211622e-01 2.519411585401e-01 7.752688788378e-01 -2.519411585401e-01
2.747037500000e-01 7.752169427841e-01 -2.520126125097e-01 2.247830572159e-01 2.520126125097e-01 2.247830572159e-01 2.520126125097e-01 7.752169427841e-01 -2.520126125097e-01
2.747775000000e-01 7.751649987491e-01 -2.520840464989e-01 2.248350012509e-01 2.520840464989e-01 2.248350012509e-01 2.520840464989e-01 7.751649987491e-01 -2.520840464989e-01
2.748512500000e-01 7.751130467381e-01 -2.521554605124e-01 2.248869532619e-01 2.521554605124e-01 2.248869532619e-01 2.521554605124e-01 7.751130467381e-01 -2.521554605124e-01
2.749250000000e-01 7.750610867565e-01 -2.522268545547e-01 2.249389132435e-01 2.522268545547e-01 2.249389132435e-01 2.522268545547e-01 7.750610867565e-01 -2.522268545547e-01
2.749987500000e-01 7.750091188098e-01 -2.522982286304e-01 2.249908811902e-01 2.522982286304e-01 2.249908811902e-01 2.522982286304e-01 7.750091188098e-01 -2.522982286304e-01
2.750725000000e-01 7.749571429034e-01 -2.523695827443e-01 2.250428570966e-01 2.523695827443e-01 2.250428570966e-01 2.523695827443e-01 7.749571429034e-01 -2.523695827443e-01
2.751462500000e-01 7.749051590426e-01 -2.524409169008e-01 2.250948409574e-01 2.524409169008e-01 2.250948409574e-01 2.524409169008e-01 7.749051590426e-01 -2.524409169008e-01
2.752200000000e-01 7.748531672329e-01 -2.525122311045e-01 2.251468327671e-01 2.525122311045e-01 2.251468327671e-01 2.525122311045e-01 7.748531672329e-01 -2.525122311045e-01
2.752937500000e-01 7.748011674796e-01 -2.525835253601e-01 2.251988325204e-01 2.525835253601e-01 2.251988325204e-01 2.525835253601e-01 7.748011674796e-01 -2.525835253601e-01
2.753675000000e-01 7.747491597882e-01 -2.526547996721e-01 2.252508402118e-01 2.526547996721e-01 2.252508402118e-01 2.526547996721e-01 7.747491597882e-01 -2.526547996721e-01
2.754412500000e-01 7.746971441641e-01 -2.527260540451e-01 2.253028558359e-01 2.527260540451e-01 2.253028558359e-01 2.527260540451e-01 7.746971441641e-01 -2.527260540451e-01
2.755150000000e-01 7.746451206126e-01 -2.527972884838e-01 2.253548793874e-01 2.527972884838e-01 2.253548793874e-01 2.527972884838e-01 7.746451206126e-01 -2.527972884838e-01
2.755887500000e-01 7.745930891392e-01 -2.528685029926e-01 2.254069108608e-01 2.528685029926e-01 2.254069108608e-01 2.528685029926e-01 7.745930891392e-01 -2.528685029926e-01
2.756625000000e-01 7.745410497492e-01 -2.529396975761e-01 2.254589502508e-01 2.529396975761e-01 2.254589502508e-01 2.529396975761e-01 7.745410497492e-01 -2.529396975761e-01
2.757362500000e-01 7.744890024480e-01 -2.530108722390e-01 2.255109975520e-01 2.530108722390e-01 2.255109975520e-01 2.530108722390e-01 7.744890024480e-01 -2.530108722390e-01
2.758100000000e-01 7.744369472410e-01 -2.530820269857e-01 2.255630527590e-01 2.530820269857e-01 2.255630527590e-01 2.530820269857e-01 7.744369472410e-01 -2.530820269857e-01
2.758837500000e-01 7.743848841336e-01 -2.531531618209e-01 2.256151158664e-01 2.531531618209e-01 2.256151158664e-01 2.531531618209e-01 7.743848841336e-01 -2.531531618209e-01
2.759575000000e-01 7.743328131312e-01 -2.532242767491e-01 2.256671868688e-01 2.532242767491e-01 2.256671868688e-01 2.532242767491e-01 7.743328131312e-01 -2.532242767491e-01
2.760312500000e-01 7.742807342391e-01 -2.532953717748e-01 2.257192657609e-01 2.532953717748e-01 2.257192657609e-01 2.532953717748e-01 7.742807342391e-01 -2.532953717748e-01
2.761050000000e-01 7.742286474628e-01 -2.533664469026e-01 2.257713525372e-01 2.533664469026e-01 2.257713525372e-01 2.533664469026e-01 7.742286474628e-01 -2.533664469026e-01
2.761787500000e-01 7.741765528075e-01 -2.534375021371e-01 2.258234471925e-01 2.534375021371e-01 2.258234471925e-01 2.534375021371e-01 7.741765528075e-01 -2.534375021371e-01
2.762525000000e-01 7.741244502788e-01 -2.535085374828e-01 2.258755497212e-01 2.535085374828e-01 2.258755497212e-01 2.535085374828e-01 7.741244502788e-01 -2.535085374828e-01
2.763262500000e-01 7.740723398819e-01 -2.535795529442e-01 2.259276601181e-01 2.535795529442e-01 2.259276601181e-01 2.535795529442e-01 7.740723398819e-01 -2.535795529442e-01
2.764000000000e-01 7.740202216222e-01 -2.536505485259e-01 2.259797783778e-01 2.536505485259e-01 2.259797783778e-01 2.536505485259e-01 7.740202216222e-01 -2.536505485259e-01
2.764737500000e-01 7.739680955052e-01 -2.537215242324e-01 2.260319044948e-01 2.537215242324e-01 2.260319044948e-01 2.537215242324e-01 7.739680955052e-01 -2.537215242324e-01
2.765475000000e-01 7.739159615361e-01 -2.537924800682e-01 2.260840384639e-01 2.537924800682e-01 2.260840384639e-01 2.537924800682e-01 7.739159615361e-01 -2.537924800682e-01
2.766212500000e-01 7.738638197203e-01 -2.538634160379e-01 2.261361802797e-01 2.538634160379e-01 2.261361802797e-01 2.538634160379e-01 7.738638197203e-01 -2.538634160379e-01
2.766950000000e-01 7.738116700633e-01 -2.539343321460e-01 2.261883299367e-01 2.539343321460e-01 2.261883299367e-01 2.539343321460e-01 7.738116700633e-01 -2.539343321460e-01
2.767687500000e-01 7.737595125703e-01 -2.540052283969e-01 2.262404874297e-01 2.540052283969e-01 2.262404874297e-01 2.540052283969e-01 7.737595125703e-01 -2.540052283969e-01
2.768425000000e-01 7.737073472467e-01 -2.540761047953e-01 2.262926527533e-01 2.540761047953e-01 2.262926527533e-01 2.540761047953e-01 7.737073472467e-01 -2.540761047953e-01
2.769162500000e-01 7.736551740979e-01 -2.541469613456e-01 2.263448259021e-01 2.541469613456e-01 2.263448259021e-01 2.541469613456e-01 7.736551740979e-01 -2.541469613456e-01
2.769900000000e-01 7.736029931292e-01 -2.542177980523e-01 2.263970068708e-01 2.542177980523e-01 2.263970068708e-01 2.542177980523e-01 7.736029931292e-01 -2.542177980523e-01
2.770637500000e-01 7.735508043461e-01 -2.542886149199e-01 2.264491956539e-01 2.542886149199e-01 2.264491956539e-01 2.542886149199e-01 7.735508043461e-01 -2.542886149199e-01
2.771375000000e-01 7.734986077537e-01 -2.543594119530e-01 2.265013922463e-01 2.543594119530e-01 2.265013922463e-01 2.543594119530e-01 7.734986077537e-01 -2.543594119530e-01
2.772112500000e-01 7.734464033576e-01 -2.544301891560e-01 2.265535966424e-01 2.544301891560e-01 2.265535966424e-01 2.544301891560e-01 7.734464033576e-01 -2.544301891560e-01
2.772850000000e-01 7.733941911631e-01 -2.545009465335e-01 2.266058088369e-01 2.545009465335e-01 2.266058088369e-01 2.545009465335e-01 7.733941911631e-01 -2.545009465335e-01
2.773587500000e-01 7.733419711754e-01 -2.545716840898e-01 2.266580288246e-01 2.545716840898e-01 2.266580288246e-01 2.545716840898e-01 7.733419711754e-01 -2.545716840898e-01
2.774325000000e-01 7.732897434000e-01 -2.546424018295e-01 2.267102566000e-01 2.546424018295e-01 2.267102566000e-01 2.546424018295e-01 7.732897434000e-01 -2.546424018295e-01
2.775062500000e-01 7.732375078421e-01 -2.547130997572e-01 2.267624921579e-01 2.547130997572e-01 2.267624921579e-01 2.547130997572e-01 7.732375078421e-01 -2.547130997572e-01
2.775800000000e-01 7.731852645073e-01 -2.547837778771e-01 2.268147354927e-01 2.547837778771e-01 2.268147354927e-01 2.547837778771e-01 7.731852645073e-01 -2.547837778771e-01
2.776537500000e-01 7.731330134006e-01 -2.548544361939e-01 2.268669865994e-01 2.548544361939e-01 2.268669865994e-01 2.548544361939e-01 7.731330134006e-01 -2.548544361939e-01
2.777275000000e-01 7.730807545276e-01 -2.549250747121e-01 2.269192454724e-01 2.549250747121e-01 2.269192454724e-01 2.549250747121e-01 7.730807545276e-01 -2.549250747121e-01
2.778012500000e-01 7.730284878936e-01 -2.549956934359e-01 2.269715121064e-01 2.549956934359e-01 2.269715121064e-01 2.549956934359e-01 7.730284878936e-01 -2.549956934359e-01
2.778750000000e-01 7.729762135039e-01 -2.550662923701e-01 2.270237864961e-01 2.550662923701e-01 2.270237864961e-01 2.550662923701e-01 7.729762135039e-01 -2.550662923701e-01
2.779487500000e-01 7.729239313637e-01 -2.551368715189e-01 2.270760686363e-01 2.551368715189e-01 2.270760686363e-01 2.551368715189e-01 7.729239313637e-01 -2.551368715189e-01
2.780225000000e-01 7.728716414786e-01 -2.552074308868e-01 2.271283585214e-01 2.552074308868e-01 2.271283585214e-01 2.552074308868e-01 7.728716414786e-01 -2.552074308868e-01
2.780962500000e-01 7.728193438537e-01 -2.552779704784e-01 2.271806561463e-01 2.552779704784e-01 2.271806561463e-01 2.552779704784e-01 7.728193438537e-01 -2.552779704784e-01
2.781700000000e-01 7.727670384944e-01 -2.553484902981e-01 2.272329615056e-01 2.553484902981e-01 2.272329615056e-01 2.553484902981e-01 7.727670384944e-01 -2.553484902981e-01
2.782437500000e-01 7.727147254061e-01 -2.554189903502e-01 2.272852745939e-01 2.554189903502e-01 2.272852745939e-01 2.554189903502e-01 7.727147254061e-01 -2.554189903502e-01
2.783175000000e-01 7.726624045941e-01 -2.554894706393e-01 2.273375954059e-01 2.554894706393e-01 2.273375954059e-01 2.554894706393e-01 7.726624045941e-01 -2.554894706393e-01
2.783912500000e-01 7.726100760636e-01 -2.555599311698e-01 2.273899239364e-01 2.555599311698e-01 2.273899239364e-01 2.555599311698e-01 7.726100760636e-01 -2.555599311698e-01
2.784650000000e-01 7.725577398201e-01 -2.556303719461e-01 2.274422601799e-01 2.556303719461e-01 2.274422601799e-01 2.556303719461e-01 7.725577398201e-01 -2.556303719461e-01
2.785387500000e-01 7.725053958688e-01 -2.557007929727e-01 2.274946041312e-01 2.557007929727e-01 2.274946041312e-01 2.557007929727e-01 7.725053958688e-01 -2.557007929727e-01
2.786125000000e-01 7.724530442151e-01 -2.557711942539e-01 2.275469557849e-01 2.557711942539e-01 2.275469557849e-01 2.557711942539e-01 7.724530442151e-01 -2.557711942539e-01
2.786862500000e-01 7.724006848642e-01 -2.558415757943e-01 2.275993151358e-01 2.558415757943e-01 2.275993151358e-01 2.558415757943e-01 7.724006848642e-01 -2.558415757943e-01
2.787600000000e-01 7.723483178215e-01 -2.559119375982e-01 2.276516821785e-01 2.559119375982e-01 2.276516821785e-01 2.559119375982e-01 7.723483178215e-01 -2.559119375982e-01
2.788337500000e-01 7.722959430924e-01 -2.559822796701e-01 2.277040569076e-01 2.559822796701e-01 2.277040569076e-01 2.559822796701e-01 7.722959430924e-01 -2.559822796701e-01
2.789075000000e-01 7.722435606820e-01 -2.560526020143e-01 2.277564393180e-01 2.560526020143e-01 2.277564393180e-01 2.560526020143e-01 7.722435606820e-01 -2.560526020143e-01
2.789812500000e-01 7.721911705958e-01 -2.561229046354e-01 2.278088294042e-01 2.561229046354e-01 2.278088294042e-01 2.561229046354e-01 7.721911705958e-01 -2.561229046354e-01
2.790550000000e-01 7.721387728390e-01 -2.561931875376e-01 2.278612271610e-01 2.561931875376e-01 2.278612271610e-01 2.561931875376e-01 7.721387728390e-01 -2.561931875376e-01
2.791287500000e-01 7.720863674169e-01 -2.562634507254e-01 2.279136325831e-01 2.562634507254e-01 2.279136325831e-01 2.562634507254e-01 7.720863674169e-01 -2.562634507254e-01
2.792025000000e-01 7.720339543349e-01 -2.563336942033e-01 2.279660456651e-01 2.563336942033e-01 2.279660456651e-01 2.563336942033e-01 7.720339543349e-01 -2.563336942033e-01
2.792762500000e-01 7.719815335983e-01 -2.564039179755e-01 2.280184664017e-01 2.564039179755e-01 2.280184664017e-01 2.564039179755e-01 7.719815335983e-01 -2.564039179755e-01
2.793500000000e-01 7.719291052123e-01 -2.564741220466e-01 2.280708947877e-01 2.564741220466e-01 2.280708947877e-01 2.564741220466e-01 7.719291052123e-01 -2.564741220466e-01
2.794237500000e-01 7.718766691822e-01 -2.565443064208e-01 2.281233308178e-01 2.565443064208e-01 2.281233308178e-01 2.565443064208e-01 7.718766691822e-01 -2.565443064208e-01
2.794975000000e-01 7.718242255134e-01 -2.566144711026e-01 2.281757744866e-01 2.566144711026e-01 2.281757744866e-01 2.566144711026e-01 7.718242255134e-01 -2.566144711026e-01
2.795712500000e-01 7.717717742111e-01 -2.566846160964e-01 2.282282257889e-01 2.566846160964e-01 2.282282257889e-01 2.566846160964e-01 7.717717742111e-01 -2.566846160964e-01
2.796450000000e-01 7.717193152807e-01 -2.567547414065e-01 2.282806847193e-01 2.567547414065e-01 2.282806847193e-01 2.567547414065e-01 7.717193152807e-01 -2.567547414065e-01
2.797187500000e-01 7.716668487274e-01 -2.568248470373e-01 2.283331512726e-01 2.568248470373e-01 2.283331512726e-01 2.568248470373e-01 7.716668487274e-01 -2.568248470373e-01
2.797925000000e-01 7.716143745565e-01 -2.568949329933e-01 2.283856254435e-01 2.568949329933e-01 2.283856254435e-01 2.568949329933e-01 7.716143745565e-01 -2.568949329933e-01
2.798662500000e-01 7.715618927734e-01 -2.569649992787e-01 2.284381072266e-01 2.569649992787e-01 2.284381072266e-01 2.569649992787e-01 7.715618927734e-01 -2.569649992787e-01
2.799400000000e-01 7.715094033832e-01 -2.570350458979e-01 2.284905966168e-01 2.570350458979e-01 2.284905966168e-01 2.570350458979e-01 7.715094033832e-01 -2.570350458979e-01
2.800137500000e-01 7.714569063913e-01 -2.571050728554e-01 2.285430936087e-01 2.571050728554e-01 2.285430936087e-01 2.571050728554e-01 7.714569063913e-01 -2.571050728554e-01
2.800875000000e-01 7.714044018030e-01 -2.571750801554e-01 2.285955981970e-01 2.571750801554e-01 2.285955981970e-01 2.571750801554e-01 7.714044018030e-01 -2.571750801554e-01
2.801612500000e-01 7.713518896236e-01 -2.572450678024e-01 2.286481103764e-01 2.572450678024e-01 2.286481103764e-01 2.572450678024e-01 7.713518896236e-01 -2.572450678024e-01
2.802350000000e-01 7.712993698582e-01 -2.573150358006e-01 2.287006301418e-01 2.573150358006e-01 2.287006301418e-01 2.573150358006e-01 7.712993698582e-01 -2.573150358006e-01
2.803087500000e-01 7.712468425123e-01 -2.573849841545e-01 2.287531574877e-01 2.573849841545e-01 2.287531574877e-01 2.573849841545e-01 7.712468425123e-01 -2.573849841545e-01
2.803825000000e-01 7.711943075911e-01 -2.574549128683e-01 2.288056924089e-01 2.574549128683e-01 2.288056924089e-01 2.574549128683e-01 7.711943075911e-01 -2.574549128683e-01
2.804562500000e-01 7.711417650998e-01 -2.575248219465e-01 2.288582349002e-01 2.575248219465e-01 2.288582349002e-01 2.575248219465e-01 7.711417650998e-01 -2.575248219465e-01
2.805300000000e-01 7.710892150438e-01 -2.575947113933e-01 2.289107849562e-01 2.575947113933e-01 2.289107849562e-01 2.575947113933e-01 7.710892150438e-01 -2.575947113933e-01
2.806037500000e-01 7.710366574283e-01 -2.576645812132e-01 2.289633425717e-01 2.576645812132e-01 2.289633425717e-01 2.576645812132e-01 7.710366574283e-01 -2.576645812132e-01
2.806775000000e-01 7.709840922586e-01 -2.577344314104e-01 2.290159077414e-01 2.577344314104e-01 2.290159077414e-01 2.577344314104e-01 7.709840922586e-01 -2.577344314104e-01
2.807512500000e-01 7.709315195399e-01 -2.578042619893e-01 2.290684804601e-01 2.578042619893e-01 2.290684804601e-01 2.578042619893e-01 7.709315195399e-01 -2.578042619893e-01
2.808250000000e-01 7.708789392775e-01 -2.578740729541e-01 2.291210607225e-01 2.578740729541e-01 2.291210607225e-01 2.578740729541e-01 7.708789392775e-01 -2.578740729541e-01
2.808987500000e-01 7.708263514767e-01 -2.579438643094e-01 2.291736485233e-01 2.579438643094e-01 2.291736485233e-01 2.579438643094e-01 7.708263514767e-01 -2.579438643094e-01
2.809725000000e-01 7.707737561428e-01 -2.580136360592e-01 2.292262438572e-01 2.580136360592e-01 2.292262438572e-01 2.580136360592e-01 7.707737561428e-01 -2.580136360592e-01
2.810462500000e-01 7.707211532810e-01 -2.580833882080e-01 2.292788467190e-01 2.580833882080e-01 2.292788467190e-01 2.580833882080e-01 7.707211532810e-01 -2.580833882080e-01
2.811200000000e-01 7.706685428965e-01 -2.581531207602e-01 2.293314571035e-01 2.581531207602e-01 2.293314571035e-01 2.581531207602e-01 7.706685428965e-01 -2.581531207602e-01
2.811937500000e-01 7.706159249947e-01 -2.582228337199e-01 2.293840750053e-01 2.582228337199e-01 2.293840750053e-01 2.582228337199e-01 7.706159249947e-01 -2.582228337199e-01
2.812675000000e-01 7.705632995807e-01 -2.582925270915e-01 2.294367004193e-01 2.582925270915e-01 2.294367004193e-01 2.582925270915e-01 7.705632995807e-01 -2.582925270915e-01
2.813412500000e-01 7.705106666599e-01 -2.583622008794e-01 2.294893333401e-01 2.583622008794e-01 2.294893333401e-01 2.583622008794e-01 7.705106666599e-01 -2.583622008794e-01
2.814150000000e-01 7.704580262375e-01 -2.584318550877e-01 2.295419737625e-01 2.584318550877e-01 2.295419737625e-01 2.584318550877e-01 7.704580262375e-01 -2.584318550877e-01
2.814887500000e-01 7.704053783187e-01 -2.585014897209e-01 2.295946216813e-01 2.585014897209e-01 2.295946216813e-01 2.585014897209e-01 7.704053783187e-01 -2.585014897209e-01
2.815625000000e-01 7.703527229088e-01 -2.585711047832e-01 2.296472770912e-01 2.585711047832e-01 2.296472770912e-01 2.585711047832e-01 7.703527229088e-01 -2.585711047832e-01
2.816362500000e-01 7.703000600131e-01 -2.586407002789e-01 2.296999399869e-01 2.586407002789e-01 2.296999399869e-01 2.586407002789e-01 7.703000600131e-01 -2.586407002789e-01
2.817100000000e-01 7.702473896368e-01 -2.587102762123e-01 2.297526103632e-01 2.587102762123e-01 2.297526103632e-01 2.587102762123e-01 7.702473896368e-01 -2.587102762123e-01
2.817837500000e-01 7.701947117851e-01 -2.587798325877e-01 2.298052882149e-01 2.587798325877e-01 2.298052882149e-01 2.587798325877e-01 7.701947117851e-01 -2.587798325877e-01
2.818575000000e-01 7.701420264632e-01 -2.588493694093e-01 2.298579735368e-01 2.588493694093e-01 2.298579735368e-01 2.588493694093e-01 7.701420264632e-01 -2.588493694093e-01
2.819312500000e-01 7.700893336765e-01 -2.589188866815e-01 2.299106663235e-01 2.589188866815e-01 2.299106663235e-01 2.589188866815e-01 7.700893336765e-01 -2.589188866815e-01
2.820050000000e-01 7.700366334302e-01 -2.589883844085e-01 2.299633665698e-01 2.589883844085e-01 2.299633665698e-01 2.589883844085e-01 7.700366334302e-01 -2.589883844085e-01
2.820787500000e-01 7.699839257294e-01 -2.590578625947e-01 2.300160742706e-01 2.590578625947e-01 2.300160742706e-01 2.590578625947e-01 7.699839257294e-01 -2.590578625947e-01
2.821525000000e-01 7.699312105795e-01 -2.591273212441e-01 2.300687894205e-01 2.591273212441e-01 2.300687894205e-01 2.591273212441e-01 7.699312105795e-01 -2.591273212441e-01
2.822262500000e-01 7.698784879856e-01 -2.591967603613e-01 2.301215120144e-01 2.591967603613e-01 2.301215120144e-01 2.591967603613e-01 7.698784879856e-01 -2.591967603613e-01
2.823000000000e-01 7.698257579531e-01 -2.592661799503e-01 2.301742420469e-01 2.592661799503e-01 2.301742420469e-01 2.592661799503e-01 7.698257579531e-01 -2.592661799503e-01
2.823737500000e-01 7.697730204871e-01 -2.593355800155e-01 2.302269795129e-01 2.593355800155e-01 2.302269795129e-01 2.593355800155e-01 7.697730204871e-01 -2.593355800155e-01
2.824475000000e-01 7.697202755928e-01 -2.594049605611e-01 2.302797244072e-01 2.594049605611e-01 2.302797244072e-01 2.594049605611e-01 7.697202755928e-01 -2.594049605611e-01
2.825212500000e-01 7.696675232756e-01 -2.594743215914e-01 2.303324767244e-01 2.594743215914e-01 2.303324767244e-01 2.594743215914e-01 7.696675232756e-01 -2.594743215914e-01
2.825950000000e-01 7.696147635406e-01 -2.595436631106e-01 2.303852364594e-01 2.595436631106e-01 2.303852364594e-01 2.595436631106e-01 7.696147635406e-01 -2.595436631106e-01
2.826687500000e-01 7.695619963930e-01 -2.596129851231e-01 2.304380036070e-01 2.596129851231e-01 2.304380036070e-01 2.596129851231e-01 7.695619963930e-01 -2.596129851231e-01
2.827425000000e-01 7.695092218380e-01 -2.596822876329e-01 2.304907781620e-01 2.596822876329e-01 2.304907781620e-01 2.596822876329e-01 7.695092218380e-01 -2.596822876329e-01
2.828162500000e-01 7.694564398810e-01 -2.597515706444e-01 2.305435601190e-01 2.597515706444e-01 2.305435601190e-01 2.597515706444e-01 7.694564398810e-01 -2.597515706444e-01
2.828900000000e-01 7.694036505271e-01 -2.598208341618e-01 2.305963494729e-01 2.598208341618e-01 2.305963494729e-01 2.598208341618e-01 7.694036505271e-01 -2.598208341618e-01
2.829637500000e-01 7.693508537815e-01 -2.598900781893e-01 2.306491462185e-01 2.598900781893e-01 2.306491462185e-01 2.598900781893e-01 7.693508537815e-01 -2.598900781893e-01
2.830375000000e-01 7.692980496494e-01 -2.599593027312e-01 2.307019503506e-01 2.599593027312e-01 2.307019503506e-01 2.599593027312e-01 7.692980496494e-01 -2.599593027312e-01
2.831112500000e-01 7.692452381362e-01 -2.600285077918e-01 2.307547618638e-01 2.600285077918e-01 2.307547618638e-01 2.600285077918e-01 7.692452381362e-01 -2.600285077918e-01
2.831850000000e-01 7.691924192468e-01 -2.600976933751e-01 2.308075807532e-01 2.600976933751e-01 2.308075807532e-01 2.600976933751e-01 7.691924192468e-01 -2.600976933751e-01
2.832587500000e-01 7.691395929867e-01 -2.601668594855e-01 2.308604070133e-01 2.601668594855e-01 2.308604070133e-01 2.601668594855e-01 7.691395929867e-01 -2.601668594855e-01
2.833325000000e-01 7.690867593610e-01 -2.602360061272e-01 2.309132406390e-01 2.602360061272e-01 2.309132406390e-01 2.602360061272e-01 7.690867593610e-01 -2.602360061272e-01
2.834062500000e-01 7.690339183748e-01 -2.603051333044e-01 2.309660816252e-01 2.603051333044e-01 2.309660816252e-01 2.603051333044e-01 7.690339183748e-01 -2.603051333044e-01
2.834800000000e-01 7.689810700335e-01 -2.603742410213e-01 2.310189299665e-01 2.603742410213e-01 2.310189299665e-01 2.603742410213e-01 7.689810700335e-01 -2.603742410213e-01
2.835537500000e-01 7.689282143422e-01 -2.604433292821e-01 2.310717856578e-01 2.604433292821e-01 2.310717856578e-01 2.604433292821e-01 7.689282143422e-01 -2.604433292821e-01
2.836275000000e-01 7.688753513061e-01 -2.605123980911e-01 2.311246486939e-01 2.605123980911e-01 2.311246486939e-01 2.605123980911e-01 7.688753513061e-01 -2.605123980911e-01
2.837012500000e-01 7.688224809304e-01 -2.605814474524e-01 2.311775190696e-01 2.605814474524e-01 2.311775190696e-01 2.605814474524e-01 7.688224809304e-01 -2.605814474524e-01
2.837750000000e-01 7.687696032203e-01 -2.606504773702e-01 2.312303967797e-01 2.606504773702e-01 2.312303967797e-01 2.606504773702e-01 7.687696032203e-01 -2.606504773702e-01
2.838487500000e-01 7.687167181811e-01 -2.607194878487e-01 2.312832818189e-01 2.607194878487e-01 2.312832818189e-01 2.607194878487e-01 7.687167181811e-01 -2.607194878487e-01
2.839225000000e-01 7.686638258179e-01 -2.607884788922e-01 2.313361741821e-01 2.607884788922e-01 2.313361741821e-01 2.607884788922e-01 7.686638258179e-01 -2.607884788922e-01
2.839962500000e-01 7.686109261358e-01 -2.608574505049e-01 2.313890738642e-01 2.608574505049e-01 2.313890738642e-01 2.608574505049e-01 7.686109261358e-01 -2.608574505049e-01
2.840700000000e-01 7.685580191402e-01 -2.609264026908e-01 2.314419808598e-01 2.609264026908e-01 2.314419808598e-01 2.609264026908e-01 7.685580191402e-01 -2.609264026908e-01
2.841437500000e-01 7.685051048362e-01 -2.609953354542e-01 2.314948951638e-01 2.609953354542e-01 2.314948951638e-01 2.609953354542e-01 7.685051048362e-01 -2.609953354542e-01
2.842175000000e-01 7.684521832290e-01 -2.610642487994e-01 2.315478167710e-01 2.610642487994e-01 2.315478167710e-01 2.610642487994e-01 7.684521832290e-01 -2.610642487994e-01
2.842912500000e-01 7.683992543237e-01 -2.611331427304e-01 2.316007456763e-01 2.611331427304e-01 2.316007456763e-01 2.611331427304e-01 7.683992543237e-01 -2.611331427304e-01
2.843650000000e-01 7.683463181256e-01 -2.612020172514e-01 2.316536818744e-01 2.612020172514e-01 2.316536818744e-01 2.612020172514e-01 7.683463181256e-01 -2.612020172514e-01
2.844387500000e-01 7.682933746398e-01 -2.612708723667e-01 2.317066253602e-01 2.612708723667e-01 2.317066253602e-01 2.612708723667e-01 7.682933746398e-01 -2.612708723667e-01
2.845125000000e-01 7.682404238716e-01 -2.613397080804e-01 2.317595761284e-01 2.613397080804e-01 2.317595761284e-01 2.613397080804e-01 7.682404238716e-01 -2.613397080804e-01
2.845862500000e-01 7.681874658260e-01 -2.614085243966e-01 2.318125341740e-01 2.614085243966e-01 2.318125341740e-01 2.614085243966e-01 7.681874658260e-01 -2.614085243966e-01
2.846600000000e-01 7.681345005084e-01 -2.614773213196e-01 2.318654994916e-01 2.614773213196e-01 2.318654994916e-01 2.614773213196e-01 7.681345005084e-01 -2.614773213196e-01
2.847337500000e-01 7.680815279238e-01 -2.615460988535e-01 2.319184720762e-01 2.615460988535e-01 2.319184720762e-01 2.615460988535e-01 7.680815279238e-01 -2.615460988535e-01
2.848075000000e-01 7.680285480775e-01 -2.616148570024e-01 2.319714519225e-01 2.616148570024e-01 2.319714519225e-01 2.616148570024e-01 7.680285480775e-01 -2.616148570024e-01
2.848812500000e-01 7.679755609746e-01 -2.616835957705e-01 2.320244390254e-01 2.616835957705e-01 2.320244390254e-01 2.616835957705e-01 7.679755609746e-01 -2.616835957705e-01
2.849550000000e-01 7.679225666203e-01 -2.617523151621e-01 2.320774333797e-01 2.617523151621e-01 2.320774333797e-01 2.617523151621e-01 7.679225666203e-01 -2.617523151621e-01
2.850287500000e-01 7.678695650198e-01 -2.618210151811e-01 2.321304349802e-01 2.618210151811e-01 2.321304349802e-01 2.618210151811e-01 7.678695650198e-01 -2.618210151811e-01
2.851025000000e-01 7.678165561781e-01 -2.618896958318e-01 2.321834438219e-01 2.618896958318e-01 2.321834438219e-01 2.618896958318e-01 7.678165561781e-01 -2.618896958318e-01
2.851762500000e-01 7.677635401006e-01 -2.619583571183e-01 2.322364598994e-01 2.619583571183e-01 2.322364598994e-01 2.619583571183e-01 7.677635401006e-01 -2.619583571183e-01
2.852500000000e-01 7.677105167924e-01 -2.620269990447e-01 2.322894832076e-01 2.620269990447e-01 2.322894832076e-01 2.620269990447e-01 7.677105167924e-01 -2.620269990447e-01
2.853237500000e-01 7.676574862586e-01 -2.620956216153e-01 2.323425137414e-01 2.620956216153e-01 2.323425137414e-01 2.620956216153e-01 7.676574862586e-01 -2.620956216153e-01
2.853975000000e-01 7.676044485044e-01 -2.621642248341e-01 2.323955514956e-01 2.621642248341e-01 2.323955514956e-01 2.621642248341e-01 7.676044485044e-01 -2.621642248341e-01
2.854712500000e-01 7.675514035350e-01 -2.622328087052e-01 2.324485964650e-01 2.622328087052e-01 2.324485964650e-01 2.622328087052e-01 7.675514035350e-01 -2.622328087052e-01
2.855450000000e-01 7.674983513555e-01 -2.623013732329e-01 2.325016486445e-01 2.623013732329e-01 2.325016486445e-01 2.623013732329e-01 7.674983513555e-01 -2.623013732329e-01
2.856187500000e-01 7.674452919711e-01 -2.623699184212e-01 2.325547080289e-01 2.623699184212e-01 2.325547080289e-01 2.623699184212e-01 7.674452919711e-01 -2.623699184212e-01
2.856925000000e-01 7.673922253869e-01 -2.624384442742e-01 2.326077746131e-01 2.624384442742e-01 2.326077746131e-01 2.624384442742e-01 7.673922253869e-01 -2.624384442742e-01
2.857662500000e-01 7.673391516082e-01 -2.625069507961e-01 2.326608483918e-01 2.625069507961e-01 2.326608483918e-01 2.625069507961e-01 7.673391516082e-01 -2.625069507961e-01
2.858400000000e-01 7.672860706399e-01 -2.625754379910e-01 2.327139293601e-01 2.625754379910e-01 2.327139293601e-01 2.625754379910e-01 7.672860706399e-01 -2.625754379910e-01
2.859137500000e-01 7.672329824874e-01 -2.626439058630e-01 2.327670175126e-01 2.626439058630e-01 2.327670175126e-01 2.626439058630e-01 7.672329824874e-01 -2.626439058630e-01
2.859875000000e-01 7.671798871558e-01 -2.627123544162e-01 2.328201128442e-01 2.627123544162e-01 2.328201128442e-01 2.627123544162e-01 7.671798871558e-01 -2.627123544162e-01
2.860612500000e-01 7.671267846501e-01 -2.627807836547e-01 2.328732153499e-01 2.627807836547e-01 2.328732153499e-01 2.627807836547e-01 7.671267846501e-01 -2.627807836547e-01
2.861350000000e-01 7.670736749756e-01 -2.628491935827e-01 2.329263250244e-01 2.628491935827e-01 2.329263250244e-01 2.628491935827e-01 7.670736749756e-01 -2.628491935827e-01
2.862087500000e-01 7.670205581374e-01 -2.629175842043e-01 2.329794418626e-01 2.629175842043e-01 2.329794418626e-01 2.629175842043e-01 7.670205581374e-01 -2.629175842043e-01
2.862825000000e-01 7.669674341406e-01 -2.629859555234e-01 2.330325658594e-01 2.629859555234e-01 2.330325658594e-01 2.629859555234e-01 7.669674341406e-01 -2.629859555234e-01
2.863562500000e-01 7.669143029904e-01 -2.630543075444e-01 2.330856970096e-01 2.630543075444e-01 2.330856970096e-01 2.630543075444e-01 7.669143029904e-01 -2.630543075444e-01
2.864300000000e-01 7.668611646920e-01 -2.631226402711e-01 2.331388353080e-01 2.631226402711e-01 2.331388353080e-01 2.631226402711e-01 7.668611646920e-01 -2.631226402711e-01
2.865037500000e-01 7.668080192504e-01 -2.631909537078e-01 2.331919807496e-01 2.631909537078e-01 2.331919807496e-01 2.631909537078e-01 7.668080192504e-01 -2.631909537078e-01
2.865775000000e-01 7.667548666708e-01 -2.632592478585e-01 2.332451333292e-01 2.632592478585e-01 2.332451333292e-01 2.632592478585e-01 7.667548666708e-01 -2.632592478585e-01
2.866512500000e-01 7.667017069584e-01 -2.633275227274e-01 2.332982930416e-01 2.633275227274e-01 2.332982930416e-01 2.633275227274e-01 7.667017069584e-01 -2.633275227274e-01
2.867250000000e-01 7.666485401182e-01 -2.633957783184e-01 2.333514598818e-01 2.633957783184e-01 2.333514598818e-01 2.633957783184e-01 7.666485401182e-01 -2.633957783184e-01
2.867987500000e-01 7.665953661554e-01 -2.634640146357e-01 2.334046338446e-01 2.634640146357e-01 2.334046338446e-01 2.634640146357e-01 7.665953661554e-01 -2.634640146357e-01
2.868725000000e-01 7.665421850752e-01 -2.635322316834e-01 2.334578149248e-01 2.635322316834e-01 2.334578149248e-01 2.635322316834e-01 7.665421850752e-01 -2.635322316834e-01
2.869462500000e-01 7.664889968826e-01 -2.636004294655e-01 2.335110031174e-01 2.636004294655e-01 2.335110031174e-01 2.636004294655e-01 7.664889968826e-01 -2.636004294655e-01
2.870200000000e-01 7.664358015829e-01 -2.636686079861e-01 2.335641984171e-01 2.636686079861e-01 2.335641984171e-01 2.636686079861e-01 7.664358015829e-01 -2.636686079861e-01
2.870937500000e-01 7.663825991811e-01 -2.637367672493e-01 2.336174008189e-01 2.637367672493e-01 2.336174008189e-01 2.637367672493e-01 7.663825991811e-01 -2.637367672493e-01
2.871675000000e-01 7.663293896823e-01 -2.638049072591e-01 2.336706103177e-01 2.638049072591e-01 2.336706103177e-01 2.638049072591e-01 7.663293896823e-01 -2.638049072591e-01
2.872412500000e-01 7.662761730917e-01 -2.638730280197e-01 2.337238269083e-01 2.638730280197e-01 2.337238269083e-01 2.638730280197e-01 7.662761730917e-01 -2.638730280197e-01
2.873150000000e-01 7.662229494144e-01 -2.639411295350e-01 2.337770505856e-01 2.639411295350e-01 2.337770505856e-01 2.639411295350e-01 7.662229494144e-01 -2.639411295350e-01
2.873887500000e-01 7.661697186555e-01 -2.640092118091e-01 2.338302813445e-01 2.640092118091e-01 2.338302813445e-01 2.640092118091e-01 7.661697186555e-01 -2.640092118091e-01
2.874625000000e-01 7.661164808201e-01 -2.640772748462e-01 2.338835191799e-01 2.640772748462e-01 2.338835191799e-01 2.640772748462e-01 7.661164808201e-01 -2.640772748462e-01
2.875362500000e-01 7.660632359134e-01 -2.641453186502e-01 2.339367640866e-01 2.641453186502e-01 2.339367640866e-01 2.641453186502e-01 7.660632359134e-01 -2.641453186502e-01
2.876100000000e-01 7.660099839405e-01 -2.642133432252e-01 2.339900160595e-01 2.642133432252e-01 2.339900160595e-01 2.642133432252e-01 7.660099839405e-01 -2.642133432252e-01
2.876837500000e-01 7.659567249064e-01 -2.642813485752e-01 2.340432750936e-01 2.642813485752e-01 2.340432750936e-01 2.642813485752e-01 7.659567249064e-01 -2.642813485752e-01
2.877575000000e-01 7.659034588163e-01 -2.643493347043e-01 2.340965411837e-01 2.643493347043e-01 2.340965411837e-01 2.643493347043e-01 7.659034588163e-01 -2.643493347043e-01
2.878312500000e-01 7.658501856754e-01 -2.644173016166e-01 2.341498143246e-01 2.644173016166e-01 2.341498143246e-01 2.644173016166e-01 7.658501856754e-01 -2.644173016166e-01
2.879050000000e-01 7.657969054886e-01 -2.644852493160e-01 2.342030945114e-01 2.644852493160e-01 2.342030945114e-01 2.644852493160e-01 7.657969054886e-01 -2.644852493160e-01
2.879787500000e-01 7.657436182612e-01 -2.645531778066e-01 2.342563817388e-01 2.645531778066e-01 2.342563817388e-01 2.645531778066e-01 7.657436182612e-01 -2.645531778066e-01
2.880525000000e-01 7.656903239982e-01 -2.646210870925e-01 2.343096760018e-01 2.646210870925e-01 2.343096760018e-01 2.646210870925e-01 7.656903239982e-01 -2.646210870925e-01
2.881262500000e-01 7.656370227047e-01 -2.646889771776e-01 2.343629772953e-01 2.646889771776e-01 2.343629772953e-01 2.646889771776e-01 7.656370227047e-01 -2.646889771776e-01
2.882000000000e-01 7.655837143859e-01 -2.647568480661e-01 2.344162856141e-01 2.647568480661e-01 2.344162856141e-01 2.647568480661e-01 7.655837143859e-01 -2.647568480661e-01
2.882737500000e-01 7.655303990468e-01 -2.648246997618e-01 2.344696009532e-01 2.648246997618e-01 2.344696009532e-01 2.648246997618e-01 7.655303990468e-01 -2.648246997618e-01
2.883475000000e-01 7.654770766925e-01 -2.648925322690e-01 2.345229233075e-01 2.648925322690e-01 2.345229233075e-01 2.648925322690e-01 7.654770766925e-01 -2.648925322690e-01
2.884212500000e-01 7.654237473282e-01 -2.649603455915e-01 2.345762526718e-01 2.649603455915e-01 2.345762526718e-01 2.649603455915e-01 7.654237473282e-01 -2.649603455915e-01
2.884950000000e-01 7.653704109589e-01 -2.650281397334e-01 2.346295890411e-01 2.650281397334e-01 2.346295890411e-01 2.650281397334e-01 7.653704109589e-01 -2.650281397334e-01
2.885687500000e-01 7.653170675897e-01 -2.650959146987e-01 2.346829324103e-01 2.650959146987e-01 2.346829324103e-01 2.650959146987e-01 7.653170675897e-01 -2.650959146987e-01
2.886425000000e-01 7.652637172257e-01 -2.651636704914e-01 2.347362827743e-01 2.651636704914e-01 2.347362827743e-01 2.651636704914e-01 7.652637172257e-01 -2.651636704914e-01
2.887162500000e-01 7.652103598721e-01 -2.652314071156e-01 2.347896401279e-01 2.652314071156e-01 2.347896401279e-01 2.652314071156e-01 7.652103598721e-01 -2.652314071156e-01
2.887900000000e-01 7.651569955338e-01 -2.652991245752e-01 2.348430044662e-01 2.652991245752e-01 2.348430044662e-01 2.652991245752e-01 7.651569955338e-01 -2.652991245752e-01
2.888637500000e-01 7.651036242161e-01 -2.653668228742e-01 2.348963757839e-01 2.653668228742e-01 2.348963757839e-01 2.653668228742e-01 7.651036242161e-01 -2.653668228742e-01
2.889375000000e-01 7.650502459239e-01 -2.654345020167e-01 2.349497540761e-01 2.654345020167e-01 2.349497540761e-01 2.654345020167e-01 7.650502459239e-01 -2.654345020167e-01
2.890112500000e-01 7.649968606623e-01 -2.655021620067e-01 2.350031393377e-01 2.655021620067e-01 2.350031393377e-01 2.655021620067e-01 7.649968606623e-01 -2.655021620067e-01
2.890850000000e-01 7.649434684365e-01 -2.655698028480e-01 2.350565315635e-01 2.655698028480e-01 2.350565315635e-01 2.655698028480e-01 7.649434684365e-01 -2.655698028480e-01
2.891587500000e-01 7.648900692516e-01 -2.656374245448e-01 2.351099307484e-01 2.656374245448e-01 2.351099307484e-01 2.656374245448e-01 7.648900692516e-01 -2.656374245448e-01
2.892325000000e-01 7.648366631125e-01 -2.657050271011e-01 2.351633368875e-01 2.657050271011e-01 2.351633368875e-01 2.657050271011e-01 7.648366631125e-01 -2.657050271011e-01
2.893062500000e-01 7.647832500245e-01 -2.657726105207e-01 2.352167499755e-01 2.657726105207e-01 2.352167499755e-01 2.657726105207e-01 7.647832500245e-01 -2.657726105207e-01
2.893800000000e-01 7.647298299925e-01 -2.658401748077e-01 2.352701700075e-01 2.658401748077e-01 2.352701700075e-01 2.658401748077e-01 7.647298299925e-01 -2.658401748077e-01
2.894537500000e-01 7.646764030216e-01 -2.659077199662e-01 2.353235969784e-01 2.659077199662e-01 2.353235969784e-01 2.659077199662e-01 7.646764030216e-01 -2.659077199662e-01
2.895275000000e-01 7.646229691170e-01 -2.659752459999e-01 2.353770308830e-01 2.659752459999e-01 2.353770308830e-01 2.659752459999e-01 7.646229691170e-01 -2.659752459999e-01
2.896012500000e-01 7.645695282836e-01 -2.660427529131e-01 2.354304717164e-01 2.660427529131e-01 2.354304717164e-01 2.660427529131e-01 7.645695282836e-01 -2.660427529131e-01
2.896750000000e-01 7.645160805266e-01 -2.661102407095e-01 2.354839194734e-01 2.661102407095e-01 2.354839194734e-01 2.661102407095e-01 7.645160805266e-01 -2.661102407095e-01
2.897487500000e-01 7.644626258510e-01 -2.661777093933e-01 2.355373741490e-01 2.661777093933e-01 2.355373741490e-01 2.661777093933e-01 7.644626258510e-01 -2.661777093933e-01
2.898225000000e-01 7.644091642619e-01 -2.662451589682e-01 2.355908357381e-01 2.662451589682e-01 2.355908357381e-01 2.662451589682e-01 7.644091642619e-01 -2.662451589682e-01
2.898962500000e-01 7.643556957644e-01 -2.663125894385e-01 2.356443042356e-01 2.663125894385e-01 2.356443042356e-01 2.663125894385e-01 7.643556957644e-01 -2.663125894385e-01
2.899700000000e-01 7.643022203635e-01 -2.663800008079e-01 2.356977796365e-01 2.663800008079e-01 2.356977796365e-01 2.663800008079e-01 7.643022203635e-01 -2.663800008079e-01
2.900437500000e-01 7.642487380643e-01 -2.664473930804e-01 2.357512619357e-01 2.664473930804e-01 2.357512619357e-01 2.664473930804e-01 7.642487380643e-01 -2.664473930804e-01
2.901175000000e-01 7.641952488719e-01 -2.665147662601e-01 2.358047511281e-01 2.665147662601e-01 2.358047511281e-01 2.665147662601e-01 7.641952488719e-01 -2.665147662601e-01
2.901912500000e-01 7.641417527913e-01 -2.665821203508e-01 2.358582472087e-01 2.665821203508e-01 2.358582472087e-01 2.665821203508e-01 7.641417527913e-01 -2.665821203508e-01
2.902650000000e-01 7.640882498275e-01 -2.666494553566e-01 2.359117501725e-01 2.666494553566e-01 2.359117501725e-01 2.666494553566e-01 7.640882498275e-01 -2.666494553566e-01
2.903387500000e-01 7.640347399857e-01 -2.667167712813e-01 2.359652600143e-01 2.667167712813e-01 2.359652600143e-01 2.667167712813e-01 7.640347399857e-01 -2.667167712813e-01
2.904125000000e-01 7.639812232708e-01 -2.667840681290e-01 2.360187767292e-01 2.667840681290e-01 2.360187767292e-01 2.667840681290e-01 7.639812232708e-01 -2.667840681290e-01
2.904862500000e-01 7.639276996880e-01 -2.668513459035e-01 2.360723003120e-01 2.668513459035e-01 2.360723003120e-01 2.668513459035e-01 7.639276996880e-01 -2.668513459035e-01
2.905600000000e-01 7.638741692423e-01 -2.669186046089e-01 2.361258307577e-01 2.669186046089e-01 2.361258307577e-01 2.669186046089e-01 7.638741692423e-01 -2.669186046089e-01
2.906337500000e-01 7.638206319387e-01 -2.669858442490e-01 2.361793680613e-01 2.669858442490e-01 2.361793680613e-01 2.669858442490e-01 7.638206319387e-01 -2.669858442490e-01
2.907075000000e-01 7.637670877824e-01 -2.670530648278e-01 2.362329122176e-01 2.670530648278e-01 2.362329122176e-01 2.670530648278e-01 7.637670877824e-01 -2.670530648278e-01
2.907812500000e-01 7.637135367782e-01 -2.671202663492e-01 2.362864632218e-01 2.671202663492e-01 2.362864632218e-01 2.671202663492e-01 7.637135367782e-01 -2.671202663492e-01
2.908550000000e-01 7.636599789314e-01 -2.671874488172e-01 2.363400210686e-01 2.671874488172e-01 2.363400210686e-01 2.671874488172e-01 7.636599789314e-01 -2.671874488172e-01
2.909287500000e-01 7.636064142468e-01 -2.672546122357e-01 2.363935857532e-01 2.672546122357e-01 2.363935857532e-01 2.672546122357e-01 7.636064142468e-01 -2.672546122357e-01
2.910025000000e-01 7.635528427297e-01 -2.673217566086e-01 2.364471572703e-01 2.673217566086e-01 2.364471572703e-01 2.673217566086e-01 7.635528427297e-01 -2.673217566086e-01
2.910762500000e-01 7.634992643850e-01 -2.673888819398e-01 2.365007356150e-01 2.673888819398e-01 2.365007356150e-01 2.673888819398e-01 7.634992643850e-01 -2.673888819398e-01
2.911500000000e-01 7.634456792177e-01 -2.674559882333e-01 2.365543207823e-01 2.674559882333e-01 2.365543207823e-01 2.674559882333e-01 7.634456792177e-01 -2.674559882333e-01
2.912237500000e-01 7.633920872329e-01 -2.675230754930e-01 2.366079127671e-01 2.675230754930e-01 2.366079127671e-01 2.675230754930e-01 7.633920872329e-01 -2.675230754930e-01
2.912975000000e-01 7.633384884356e-01 -2.675901437229e-01 2.366615115644e-01 2.675901437229e-01 2.366615115644e-01 2.675901437229e-01 7.633384884356e-01 -2.675901437229e-01
2.913712500000e-01 7.632848828310e-01 -2.676571929267e-01 2.367151171690e-01 2.676571929267e-01 2.367151171690e-01 2.676571929267e-01 7.632848828310e-01 -2.676571929267e-01
2.914450000000e-01 7.632312704239e-01 -2.677242231085e-01 2.367687295761e-01 2.677242231085e-01 2.367687295761e-01 2.677242231085e-01 7.632312704239e-01 -2.677242231085e-01
2.915187500000e-01 7.631776512194e-01 -2.677912342721e-01 2.368223487806e-01 2.677912342721e-01 2.368223487806e-01 2.677912342721e-01 7.631776512194e-01 -2.677912342721e-01
2.915925000000e-01 7.631240252226e-01 -2.678582264215e-01 2.368759747774e-01 2.678582264215e-01 2.368759747774e-01 2.678582264215e-01 7.631240252226e-01 -2.678582264215e-01
2.916662500000e-01 7.630703924385e-01 -2.679251995606e-01 2.369296075615e-01 2.679251995606e-01 2.369296075615e-01 2.679251995606e-01 7.630703924385e-01 -2.679251995606e-01
2.917400000000e-01 7.630167528722e-01 -2.679921536932e-01 2.369832471278e-01 2.679921536932e-01 2.369832471278e-01 2.679921536932e-01 7.630167528722e-01 -2.679921536932e-01
2.918137500000e-01 7.629631065285e-01 -2.680590888233e-01 2.370368934715e-01 2.680590888233e-01 2.370368934715e-01 2.680590888233e-01 7.629631065285e-01 -2.680590888233e-01
2.918875000000e-01 7.629094534127e-01 -2.681260049548e-01 2.370905465873e-01 2.681260049548e-01 2.370905465873e-01 2.681260049548e-01 7.629094534127e-01 -2.681260049548e-01
2.919612500000e-01 7.628557935296e-01 -2.681929020915e-01 2.371442064704e-01 2.681929020915e-01 2.371442064704e-01 2.681929020915e-01 7.628557935296e-01 -2.681929020915e-01
2.920350000000e-01 7.628021268844e-01 -2.682597802374e-01 2.371978731156e-01 2.682597802374e-01 2.371978731156e-01 2.682597802374e-01 7.628021268844e-01 -2.682597802374e-01
2.921087500000e-01 7.627484534820e-01 -2.683266393963e-01 2.372515465180e-01 2.683266393963e-01 2.372515465180e-01 2.683266393963e-01 7.627484534820e-01 -2.683266393963e-01
2.921825000000e-01 7.626947733274e-01 -2.683934795721e-01 2.373052266726e-01 2.683934795721e-01 2.373052266726e-01 2.683934795721e-01 7.626947733274e-01 -2.683934795721e-01
2.922562500000e-01 7.626410864257e-01 -2.684603007688e-01 2.373589135743e-01 2.684603007688e-01 2.373589135743e-01 2.684603007688e-01 7.626410864257e-01 -2.684603007688e-01
2.923300000000e-01 7.625873927819e-01 -2.685271029902e-01 2.374126072181e-01 2.685271029902e-01 2.374126072181e-01 2.685271029902e-01 7.625873927819e-01 -2.685271029902e-01
2.924037500000e-01 7.625336924010e-01 -2.685938862401e-01 2.374663075990e-01 2.685938862401e-01 2.374663075990e-01 2.685938862401e-01 7.625336924010e-01 -2.685938862401e-01
2.924775000000e-01 7.624799852880e-01 -2.686606505225e-01 2.375200147120e-01 2.686606505225e-01 2.375200147120e-01 2.686606505225e-01 7.624799852880e-01 -2.686606505225e-01
2.925512500000e-01 7.624262714480e-01 -2.687273958413e-01 2.375737285520e-01 2.687273958413e-01 2.375737285520e-01 2.687273958413e-01 7.624262714480e-01 -2.687273958413e-01
2.926250000000e-01 7.623725508859e-01 -2.687941222002e-01 2.376274491141e-01 2.687941222002e-01 2.376274491141e-01 2.687941222002e-01 7.623725508859e-01 -2.687941222002e-01
2.926987500000e-01 7.623188236067e-01 -2.688608296032e-01 2.376811763933e-01 2.688608296032e-01 2.376811763933e-01 2.688608296032e-01 7.623188236067e-01 -2.688608296032e-01
2.927725000000e-01 7.622650896155e-01 -2.689275180542e-01 2.377349103845e-01 2.689275180542e-01 2.377349103845e-01 2.689275180542e-01 7.622650896155e-01 -2.689275180542e-01
2.928462500000e-01 7.622113489172e-01 -2.689941875570e-01 2.377886510828e-01 2.689941875570e-01 2.377886510828e-01 2.689941875570e-01 7.622113489172e-01 -2.689941875570e-01
2.929200000000e-01 7.621576015168e-01 -2.690608381154e-01 2.378423984832e-01 2.690608381154e-01 2.378423984832e-01 2.690608381154e-01 7.621576015168e-01 -2.690608381154e-01
2.929937500000e-01 7.621038474195e-01 -2.691274697334e-01 2.378961525805e-01 2.691274697334e-01 2.378961525805e-01 2.691274697334e-01 7.621038474195e-01 -2.691274697334e-01
2.930675000000e-01 7.620500866301e-01 -2.691940824148e-01 2.379499133699e-01 2.691940824148e-01 2.379499133699e-01 2.691940824148e-01 7.620500866301e-01 -2.691940824148e-01
2.931412500000e-01 7.619963191536e-01 -2.692606761635e-01 2.380036808464e-01 2.692606761635e-01 2.380036808464e-01 2.692606761635e-01 7.619963191536e-01 -2.692606761635e-01
2.932150000000e-01 7.619425449951e-01 -2.693272509832e-01 2.380574550049e-01 2.693272509832e-01 2.380574550049e-01 2.693272509832e-01 7.619425449951e-01 -2.693272509832e-01
2.932887500000e-01 7.618887641596e-01 -2.693938068779e-01 2.381112358404e-01 2.693938068779e-01 2.381112358404e-01 2.693938068779e-01 7.618887641596e-01 -2.693938068779e-01
2.933625000000e-01 7.618349766520e-01 -2.694603438514e-01 2.381650233480e-01 2.694603438514e-01 2.381650233480e-01 2.694603438514e-01 7.618349766520e-01 -2.694603438514e-01
2.934362500000e-01 7.617811824773e-01 -2.695268619076e-01 2.382188175227e-01 2.695268619076e-01 2.382188175227e-01 2.695268619076e-01 7.617811824773e-01 -2.695268619076e-01
2.935100000000e-01 7.617273816405e-01 -2.695933610502e-01 2.382726183595e-01 2.695933610502e-01 2.382726183595e-01 2.695933610502e-01 7.617273816405e-01 -2.695933610502e-01
2.935837500000e-01 7.616735741467e-01 -2.696598412832e-01 2.383264258533e-01 2.696598412832e-01 2.383264258533e-01 2.696598412832e-01 7.616735741467e-01 -2.696598412832e-01
2.936575000000e-01 7.616197600008e-01 -2.697263026104e-01 2.383802399992e-01 2.697263026104e-01 2.383802399992e-01 2.697263026104e-01 7.616197600008e-01 -2.697263026104e-01
2.937312500000e-01 7.615659392077e-01 -2.697927450356e-01 2.384340607923e-01 2.697927450356e-01 2.384340607923e-01 2.697927450356e-01 7.615659392077e-01 -2.697927450356e-01
2.938050000000e-01 7.615121117726e-01 -2.698591685626e-01 2.384878882274e-01 2.698591685626e-01 2.384878882274e-01 2.698591685626e-01 7.615121117726e-01 -2.698591685626e-01
2.938787500000e-01 7.614582777003e-01 -2.699255731953e-01 2.385417222997e-01 2.699255731953e-01 2.385417222997e-01 2.699255731953e-01 7.614582777003e-01 -2.699255731953e-01
2.939525000000e-01 7.614044369958e-01 -2.699919589375e-01 2.385955630042e-01 2.699919589375e-01 2.385955630042e-01 2.699919589375e-01 7.614044369958e-01 -2.699919589375e-01
2.940262500000e-01 7.613505896642e-01 -2.700583257931e-01 2.386494103358e-01 2.700583257931e-01 2.386494103358e-01 2.700583257931e-01 7.613505896642e-01 -2.700583257931e-01
2.941000000000e-01 7.612967357103e-01 -2.701246737658e-01 2.387032642897e-01 2.701246737658e-01 2.387032642897e-01 2.701246737658e-01 7.612967357103e-01 -2.701246737658e-01
2.941737500000e-01 7.612428751393e-01 -2.701910028595e-01 2.387571248607e-01 2.701910028595e-01 2.387571248607e-01 2.701910028595e-01 7.612428751393e-01 -2.701910028595e-01
2.942475000000e-01 7.611890079560e-01 -2.702573130780e-01 2.388109920440e-01 2.702573130780e-01 2.388109920440e-01 2.702573130780e-01 7.611890079560e-01 -2.702573130780e-01
2.943212500000e-01 7.611351341654e-01 -2.703236044251e-01 2.388648658346e-01 2.703236044251e-01 2.388648658346e-01 2.703236044251e-01 7.611351341654e-01 -2.703236044251e-01
2.943950000000e-01 7.610812537725e-01 -2.703898769047e-01 2.389187462275e-01 2.703898769047e-01 2.389187462275e-01 2.703898769047e-01 7.610812537725e-01 -2.703898769047e-01
2.944687500000e-01 7.610273667823e-01 -2.704561305205e-01 2.389726332177e-01 2.704561305205e-01 2.389726332177e-01 2.704561305205e-01 7.610273667823e-01 -2.704561305205e-01
2.945425000000e-01 7.609734731997e-01 -2.705223652763e-01 2.390265268003e-01 2.705223652763e-01 2.390265268003e-01 2.705223652763e-01 7.609734731997e-01 -2.705223652763e-01
2.946162500000e-01 7.609195730297e-01 -2.705885811761e-01 2.390804269703e-01 2.705885811761e-01 2.390804269703e-01 2.705885811761e-01 7.609195730297e-01 -2.705885811761e-01
2.946900000000e-01 7.608656662774e-01 -2.706547782235e-01 2.391343337226e-01 2.706547782235e-01 2.391343337226e-01 2.706547782235e-01 7.608656662774e-01 -2.706547782235e-01
2.947637500000e-01 7.608117529475e-01 -2.707209564223e-01 2.391882470525e-01 2.707209564223e-01 2.391882470525e-01 2.707209564223e-01 7.608117529475e-01 -2.707209564223e-01
2.948375000000e-01 7.607578330452e-01 -2.707871157765e-01 2.392421669548e-01 2.707871157765e-01 2.392421669548e-01 2.707871157765e-01 7.607578330452e-01 -2.707871157765e-01
2.949112500000e-01 7.607039065753e-01 -2.708532562897e-01 2.392960934247e-01 2.708532562897e-01 2.392960934247e-01 2.708532562897e-01 7.607039065753e-01 -2.708532562897e-01
2.949850000000e-01 7.606499735429e-01 -2.709193779659e-01 2.393500264571e-01 2.709193779659e-01 2.393500264571e-01 2.709193779659e-01 7.606499735429e-01 -2.709193779659e-01
2.950587500000e-01 7.605960339528e-01 -2.709854808086e-01 2.394039660472e-01 2.709854808086e-01 2.394039660472e-01 2.709854808086e-01 7.605960339528e-01 -2.709854808086e-01
2.951325000000e-01 7.605420878101e-01 -2.710515648219e-01 2.394579121899e-01 2.710515648219e-01 2.394579121899e-01 2.710515648219e-01 7.605420878101e-01 -2.710515648219e-01
2.952062500000e-01 7.604881351197e-01 -2.711176300094e-01 2.395118648803e-01 2.711176300094e-01 2.395118648803e-01 2.711176300094e-01 7.604881351197e-01 -2.711176300094e-01
2.952800000000e-01 7.604341758865e-01 -2.711836763749e-01 2.395658241135e-01 2.711836763749e-01 2.395658241135e-01 2.711836763749e-01 7.604341758865e-01 -2.711836763749e-01
2.953537500000e-01 7.603802101156e-01 -2.712497039223e-01 2.396197898844e-01 2.712497039223e-01 2.396197898844e-01 2.712497039223e-01 7.603802101156e-01 -2.712497039223e-01
2.954275000000e-01 7.603262378118e-01 -2.713157126552e-01 2.396737621882e-01 2.713157126552e-01 2.396737621882e-01 2.713157126552e-01 7.603262378118e-01 -2.713157126552e-01
2.955012500000e-01 7.602722589802e-01 -2.713817025776e-01 2.397277410198e-01 2.713817025776e-01 2.397277410198e-01 2.713817025776e-01 7.602722589802e-01 -2.713817025776e-01
2.955750000000e-01 7.602182736256e-01 -2.714476736931e-01 2.397817263744e-01 2.714476736931e-01 2.397817263744e-01 2.714476736931e-01 7.602182736256e-01 -2.714476736931e-01
2.956487500000e-01 7.601642817530e-01 -2.715136260056e-01 2.398357182470e-01 2.715136260056e-01 2.398357182470e-01 2.715136260056e-01 7.601642817530e-01 -2.715136260056e-01
2.957225000000e-01 7.601102833673e-01 -2.715795595187e-01 2.398897166327e-01 2.715795595187e-01 2.398897166327e-01 2.715795595187e-01 7.601102833673e-01 -2.715795595187e-01
2.957962500000e-01 7.600562784736e-01 -2.716454742364e-01 2.399437215264e-01 2.716454742364e-01 2.399437215264e-01 2.716454742364e-01 7.600562784736e-01 -2.716454742364e-01
2.958700000000e-01 7.600022670767e-01 -2.717113701623e-01 2.399977329233e-01 2.717113701623e-01 2.399977329233e-01 2.717113701623e-01 7.600022670767e-01 -2.717113701623e-01
2.959437500000e-01 7.599482491815e-01 -2.717772473002e-01 2.400517508185e-01 2.717772473002e-01 2.400517508185e-01 2.717772473002e-01 7.599482491815e-01 -2.717772473002e-01
2.960175000000e-01 7.598942247932e-01 -2.718431056539e-01 2.401057752068e-01 2.718431056539e-01 2.401057752068e-01 2.718431056539e-01 7.598942247932e-01 -2.718431056539e-01
2.960912500000e-01 7.598401939164e-01 -2.719089452272e-01 2.401598060836e-01 2.719089452272e-01 2.401598060836e-01 2.719089452272e-01 7.598401939164e-01 -2.719089452272e-01
2.961650000000e-01 7.597861565563e-01 -2.719747660238e-01 2.402138434437e-01 2.719747660238e-01 2.402138434437e-01 2.719747660238e-01 7.597861565563e-01 -2.719747660238e-01
2.962387500000e-01 7.597321127177e-01 -2.720405680474e-01 2.402678872823e-01 2.720405680474e-01 2.402678872823e-01 2.720405680474e-01 7.597321127177e-01 -2.720405680474e-01
2.963125000000e-01 7.596780624055e-01 -2.721063513019e-01 2.403219375945e-01 2.721063513019e-01 2.403219375945e-01 2.721063513019e-01 7.596780624055e-01 -2.721063513019e-01
2.963862500000e-01 7.596240056248e-01 -2.721721157909e-01 2.403759943752e-01 2.721721157909e-01 2.403759943752e-01 2.721721157909e-01 7.596240056248e-01 -2.721721157909e-01
2.964600000000e-01 7.595699423804e-01 -2.722378615183e-01 2.404300576196e-01 2.722378615183e-01 2.404300576196e-01 2.722378615183e-01 7.595699423804e-01 -2.722378615183e-01
2.965337500000e-01 7.595158726772e-01 -2.723035884877e-01 2.404841273228e-01 2.723035884877e-01 2.404841273228e-01 2.723035884877e-01 7.595158726772e-01 -2.723035884877e-01
2.966075000000e-01 7.594617965202e-01 -2.723692967029e-01 2.405382034798e-01 2.723692967029e-01 2.405382034798e-01 2.723692967029e-01 7.594617965202e-01 -2.723692967029e-01
2.966812500000e-01 7.594077139144e-01 -2.724349861678e-01 2.405922860856e-01 2.724349861678e-01 2.405922860856e-01 2.724349861678e-01 7.594077139144e-01 -2.724349861678e-01
2.967550000000e-01 7.593536248646e-01 -2.725006568859e-01 2.406463751354e-01 2.725006568859e-01 2.406463751354e-01 2.725006568859e-01 7.593536248646e-01 -2.725006568859e-01
2.968287500000e-01 7.592995293757e-01 -2.725663088611e-01 2.407004706243e-01 2.725663088611e-01 2.407004706243e-01 2.725663088611e-01 7.592995293757e-01 -2.725663088611e-01
2.969025000000e-01 7.592454274527e-01 -2.726319420970e-01 2.407545725473e-01 2.726319420970e-01 2.407545725473e-01 2.726319420970e-01 7.592454274527e-01 -2.726319420970e-01
2.969762500000e-01 7.591913191006e-01 -2.726975565975e-01 2.408086808994e-01 2.726975565975e-01 2.408086808994e-01 2.726975565975e-01 7.591913191006e-01 -2.726975565975e-01
2.970500000000e-01 7.591372043241e-01 -2.727631523662e-01 2.408627956759e-01 2.727631523662e-01 2.408627956759e-01 2.727631523662e-01 7.591372043241e-01 -2.727631523662e-01
2.971237500000e-01 7.590830831283e-01 -2.728287294070e-01 2.409169168717e-01 2.728287294070e-01 2.409169168717e-01 2.728287294070e-01 7.590830831283e-01 -2.728287294070e-01
2.971975000000e-01 7.590289555181e-01 -2.728942877234e-01 2.409710444819e-01 2.728942877234e-01 2.409710444819e-01 2.728942877234e-01 7.590289555181e-01 -2.728942877234e-01
2.972712500000e-01 7.589748214983e-01 -2.729598273193e-01 2.410251785017e-01 2.729598273193e-01 2.410251785017e-01 2.729598273193e-01 7.589748214983e-01 -2.729598273193e-01
2.973450000000e-01 7.589206810739e-01 -2.730253481983e-01 2.410793189261e-01 2.730253481983e-01 2.410793189261e-01 2.730253481983e-01 7.589206810739e-01 -2.730253481983e-01
2.974187500000e-01 7.588665342498e-01 -2.730908503642e-01 2.411334657502e-01 2.730908503642e-01 2.411334657502e-01 2.730908503642e-01 7.588665342498e-01 -2.730908503642e-01
2.974925000000e-01 7.588123810309e-01 -2.731563338208e-01 2.411876189691e-01 2.731563338208e-01 2.411876189691e-01 2.731563338208e-01 7.588123810309e-01 -2.731563338208e-01
2.975662500000e-01 7.587582214222e-01 -2.732217985716e-01 2.412417785778e-01 2.732217985716e-01 2.412417785778e-01 2.732217985716e-01 7.587582214222e-01 -2.732217985716e-01
2.976400000000e-01 7.587040554284e-01 -2.732872446205e-01 2.412959445716e-01 2.732872446205e-01 2.412959445716e-01 2.732872446205e-01 7.587040554284e-01 -2.732872446205e-01
2.977137500000e-01 7.586498830546e-01 -2.733526719712e-01 2.413501169454e-01 2.733526719712e-01 2.413501169454e-01 2.733526719712e-01 7.586498830546e-01 -2.733526719712e-01
2.977875000000e-01 7.585957043056e-01 -2.734180806273e-01 2.414042956944e-01 2.734180806273e-01 2.414042956944e-01 2.734180806273e-01 7.585957043056e-01 -2.734180806273e-01
2.978612500000e-01 7.585415191863e-01 -2.734834705926e-01 2.414584808137e-01 2.734834705926e-01 2.414584808137e-01 2.734834705926e-01 7.585415191863e-01 -2.734834705926e-01
2.979350000000e-01 7.584873277017e-01 -2.735488418707e-01 2.415126722983e-01 2.735488418707e-01 2.415126722983e-01 2.735488418707e-01 7.584873277017e-01 -2.735488418707e-01
2.980087500000e-01 7.584331298566e-01 -2.736141944655e-01 2.415668701434e-01 2.736141944655e-01 2.415668701434e-01 2.736141944655e-01 7.584331298566e-01 -2.736141944655e-01
2.980825000000e-01 7.583789256560e-01 -2.736795283805e-01 2.416210743440e-01 2.736795283805e-01 2.416210743440e-01 2.736795283805e-01 7.583789256560e-01 -2.736795283805e-01
2.981562500000e-01 7.583247151047e-01 -2.737448436196e-01 2.416752848953e-01 2.737448436196e-01 2.416752848953e-01 2.737448436196e-01 7.583247151047e-01 -2.737448436196e-01
2.982300000000e-01 7.582704982076e-01 -2.738101401863e-01 2.417295017924e-01 2.738101401863e-01 2.417295017924e-01 2.738101401863e-01 7.582704982076e-01 -2.738101401863e-01
2.983037500000e-01 7.582162749696e-01 -2.738754180844e-01 2.417837250304e-01 2.738754180844e-01 2.417837250304e-01 2.738754180844e-01 7.582162749696e-01 -2.738754180844e-01
2.983775000000e-01 7.581620453956e-01 -2.739406773176e-01 2.418379546044e-01 2.739406773176e-01 2.418379546044e-01 2.739406773176e-01 7.581620453956e-01 -2.739406773176e-01
2.984512500000e-01 7.581078094906e-01 -2.740059178895e-01 2.418921905094e-01 2.740059178895e-01 2.418921905094e-01 2.740059178895e-01 7.581078094906e-01 -2.740059178895e-01
2.985250000000e-01 7.580535672593e-01 -2.740711398039e-01 2.419464327407e-01 2.740711398039e-01 2.419464327407e-01 2.740711398039e-01 7.580535672593e-01 -2.740711398039e-01
2.985987500000e-01 7.579993187067e-01 -2.741363430645e-01 2.420006812933e-01 2.741363430645e-01 2.420006812933e-01 2.741363430645e-01 7.579993187067e-01 -2.741363430645e-01
2.986725000000e-01 7.579450638377e-01 -2.742015276749e-01 2.420549361623e-01 2.742015276749e-01 2.420549361623e-01 2.742015276749e-01 7.579450638377e-01 -2.742015276749e-01
2.987462500000e-01 7.578908026571e-01 -2.742666936388e-01 2.421091973429e-01 2.742666936388e-01 2.421091973429e-01 2.742666936388e-01 7.578908026571e-01 -2.742666936388e-01
2.988200000000e-01 7.578365351699e-01 -2.743318409599e-01 2.421634648301e-01 2.743318409599e-01 2.421634648301e-01 2.743318409599e-01 7.578365351699e-01 -2.743318409599e-01
2.988937500000e-01 7.577822613809e-01 -2.743969696419e-01 2.422177386191e-01 2.743969696419e-01 2.422177386191e-01 2.743969696419e-01 7.577822613809e-01 -2.743969696419e-01
2.989675000000e-01 7.577279812950e-01 -2.744620796884e-01 2.422720187050e-01 2.744620796884e-01 2.422720187050e-01 2.744620796884e-01 7.577279812950e-01 -2.744620796884e-01
2.990412500000e-01 7.576736949171e-01 -2.745271711032e-01 2.423263050829e-01 2.745271711032e-01 2.423263050829e-01 2.745271711032e-01 7.576736949171e-01 -2.745271711032e-01
2.991150000000e-01 7.576194022520e-01 -2.745922438898e-01 2.423805977480e-01 2.745922438898e-01 2.423805977480e-01 2.745922438898e-01 7.576194022520e-01 -2.745922438898e-01
2.991887500000e-01 7.575651033047e-01 -2.746572980521e-01 2.424348966953e-01 2.746572980521e-01 2.424348966953e-01 2.746572980521e-01 7.575651033047e-01 -2.746572980521e-01
2.992625000000e-01 7.575107980799e-01 -2.747223335936e-01 2.424892019201e-01 2.747223335936e-01 2.424892019201e-01 2.747223335936e-01 7.575107980799e-01 -2.747223335936e-01
2.993362500000e-01 7.574564865827e-01 -2.747873505180e-01 2.425435134173e-01 2.747873505180e-01 2.425435134173e-01 2.747873505180e-01 7.574564865827e-01 -2.747873505180e-01
2.994100000000e-01 7.574021688178e-01 -2.748523488289e-01 2.425978311822e-01 2.748523488289e-01 2.425978311822e-01 2.748523488289e-01 7.574021688178e-01 -2.748523488289e-01
2.994837500000e-01 7.573478447901e-01 -2.749173285301e-01 2.426521552099e-01 2.749173285301e-01 2.426521552099e-01 2.749173285301e-01 7.573478447901e-01 -2.749173285301e-01
2.995575000000e-01 7.572935145046e-01 -2.749822896252e-01 2.427064854954e-01 2.749822896252e-01 2.427064854954e-01 2.749822896252e-01 7.572935145046e-01 -2.749822896252e-01
2.996312500000e-01 7.572391779659e-01 -2.750472321179e-01 2.427608220341e-01 2.750472321179e-01 2.427608220341e-01 2.750472321179e-01 7.572391779659e-01 -2.750472321179e-01
2.997050000000e-01 7.571848351792e-01 -2.751121560117e-01 2.428151648208e-01 2.751121560117e-01 2.428151648208e-01 2.751121560117e-01 7.571848351792e-01 -2.751121560117e-01
2.997787500000e-01 7.571304861491e-01 -2.751770613104e-01 2.428695138509e-01 2.751770613104e-01 2.428695138509e-01 2.751770613104e-01 7.571304861491e-01 -2.751770613104e-01
2.998525000000e-01 7.570761308805e-01 -2.752419480177e-01 2.429238691195e-01 2.752419480177e-01 2.429238691195e-01 2.752419480177e-01 7.570761308805e-01 -2.752419480177e-01
2.999262500000e-01 7.570217693784e-01 -2.753068161371e-01 2.429782306216e-01 2.753068161371e-01 2.429782306216e-01 2.753068161371e-01 7.570217693784e-01 -2.753068161371e-01
3.000000000000e-01 7.569674016475e-01 -2.753716656723e-01 2.430325983525e-01 2.753716656723e-01 2.430325983525e-01 2.753716656723e-01 7.569674016475e-01 -2.753716656723e-01
